*Heading
** Job name: Job-1 Model name: Model-1
** Generated by: Abaqus/CAE 2020
*Preprint, echo=NO, model=NO, history=NO, contact=NO
**
** PARTS
**
*Part, name=Part-1
*End Part
**  
*Part, name=Part-2
*End Part
**  
**
** ASSEMBLY
**
*Assembly, name=Assembly
**  
*Instance, name=Part-1-1, part=Part-1
*Node
      1,           8.,           1.,           3.
      2,           8.,          0.5,           3.
      3,           8.,           0.,           3.
      4,           8.,           1.,          2.5
      5,           8.,          0.5,          2.5
      6,           8.,           0.,          2.5
      7,           8.,           1.,           2.
      8,           8.,          0.5,           2.
      9,           8.,           0.,           2.
     10,           8.,           1.,          1.5
     11,           8.,          0.5,          1.5
     12,           8.,           0.,          1.5
     13,           8.,           1.,           1.
     14,           8.,          0.5,           1.
     15,           8.,           0.,           1.
     16,           8.,           1.,          0.5
     17,           8.,          0.5,          0.5
     18,           8.,           0.,          0.5
     19,           8.,           1.,           0.
     20,           8.,          0.5,           0.
     21,           8.,           0.,           0.
     22,          7.5,           1.,           3.
     23,          7.5,          0.5,           3.
     24,          7.5,           0.,           3.
     25,          7.5,           1.,          2.5
     26,          7.5,          0.5,          2.5
     27,          7.5,           0.,          2.5
     28,          7.5,           1.,           2.
     29,          7.5,          0.5,           2.
     30,          7.5,           0.,           2.
     31,          7.5,           1.,          1.5
     32,          7.5,          0.5,          1.5
     33,          7.5,           0.,          1.5
     34,          7.5,           1.,           1.
     35,          7.5,          0.5,           1.
     36,          7.5,           0.,           1.
     37,          7.5,           1.,          0.5
     38,          7.5,          0.5,          0.5
     39,          7.5,           0.,          0.5
     40,          7.5,           1.,           0.
     41,          7.5,          0.5,           0.
     42,          7.5,           0.,           0.
     43,           7.,           1.,           3.
     44,           7.,          0.5,           3.
     45,           7.,           0.,           3.
     46,           7.,           1.,          2.5
     47,           7.,          0.5,          2.5
     48,           7.,           0.,          2.5
     49,           7.,           1.,           2.
     50,           7.,          0.5,           2.
     51,           7.,           0.,           2.
     52,           7.,           1.,          1.5
     53,           7.,          0.5,          1.5
     54,           7.,           0.,          1.5
     55,           7.,           1.,           1.
     56,           7.,          0.5,           1.
     57,           7.,           0.,           1.
     58,           7.,           1.,          0.5
     59,           7.,          0.5,          0.5
     60,           7.,           0.,          0.5
     61,           7.,           1.,           0.
     62,           7.,          0.5,           0.
     63,           7.,           0.,           0.
     64,          6.5,           1.,           3.
     65,          6.5,          0.5,           3.
     66,          6.5,           0.,           3.
     67,          6.5,           1.,          2.5
     68,          6.5,          0.5,          2.5
     69,          6.5,           0.,          2.5
     70,          6.5,           1.,           2.
     71,          6.5,          0.5,           2.
     72,          6.5,           0.,           2.
     73,          6.5,           1.,          1.5
     74,          6.5,          0.5,          1.5
     75,          6.5,           0.,          1.5
     76,          6.5,           1.,           1.
     77,          6.5,          0.5,           1.
     78,          6.5,           0.,           1.
     79,          6.5,           1.,          0.5
     80,          6.5,          0.5,          0.5
     81,          6.5,           0.,          0.5
     82,          6.5,           1.,           0.
     83,          6.5,          0.5,           0.
     84,          6.5,           0.,           0.
     85,           6.,           1.,           3.
     86,           6.,          0.5,           3.
     87,           6.,           0.,           3.
     88,           6.,           1.,          2.5
     89,           6.,          0.5,          2.5
     90,           6.,           0.,          2.5
     91,           6.,           1.,           2.
     92,           6.,          0.5,           2.
     93,           6.,           0.,           2.
     94,           6.,           1.,          1.5
     95,           6.,          0.5,          1.5
     96,           6.,           0.,          1.5
     97,           6.,           1.,           1.
     98,           6.,          0.5,           1.
     99,           6.,           0.,           1.
    100,           6.,           1.,          0.5
    101,           6.,          0.5,          0.5
    102,           6.,           0.,          0.5
    103,           6.,           1.,           0.
    104,           6.,          0.5,           0.
    105,           6.,           0.,           0.
    106,          5.5,           1.,           3.
    107,          5.5,          0.5,           3.
    108,          5.5,           0.,           3.
    109,          5.5,           1.,          2.5
    110,          5.5,          0.5,          2.5
    111,          5.5,           0.,          2.5
    112,          5.5,           1.,           2.
    113,          5.5,          0.5,           2.
    114,          5.5,           0.,           2.
    115,          5.5,           1.,          1.5
    116,          5.5,          0.5,          1.5
    117,          5.5,           0.,          1.5
    118,          5.5,           1.,           1.
    119,          5.5,          0.5,           1.
    120,          5.5,           0.,           1.
    121,          5.5,           1.,          0.5
    122,          5.5,          0.5,          0.5
    123,          5.5,           0.,          0.5
    124,          5.5,           1.,           0.
    125,          5.5,          0.5,           0.
    126,          5.5,           0.,           0.
    127,           5.,           1.,           3.
    128,           5.,          0.5,           3.
    129,           5.,           0.,           3.
    130,           5.,           1.,          2.5
    131,           5.,          0.5,          2.5
    132,           5.,           0.,          2.5
    133,           5.,           1.,           2.
    134,           5.,          0.5,           2.
    135,           5.,           0.,           2.
    136,           5.,           1.,          1.5
    137,           5.,          0.5,          1.5
    138,           5.,           0.,          1.5
    139,           5.,           1.,           1.
    140,           5.,          0.5,           1.
    141,           5.,           0.,           1.
    142,           5.,           1.,          0.5
    143,           5.,          0.5,          0.5
    144,           5.,           0.,          0.5
    145,           5.,           1.,           0.
    146,           5.,          0.5,           0.
    147,           5.,           0.,           0.
    148,          4.5,           1.,           3.
    149,          4.5,          0.5,           3.
    150,          4.5,           0.,           3.
    151,          4.5,           1.,          2.5
    152,          4.5,          0.5,          2.5
    153,          4.5,           0.,          2.5
    154,          4.5,           1.,           2.
    155,          4.5,          0.5,           2.
    156,          4.5,           0.,           2.
    157,          4.5,           1.,          1.5
    158,          4.5,          0.5,          1.5
    159,          4.5,           0.,          1.5
    160,          4.5,           1.,           1.
    161,          4.5,          0.5,           1.
    162,          4.5,           0.,           1.
    163,          4.5,           1.,          0.5
    164,          4.5,          0.5,          0.5
    165,          4.5,           0.,          0.5
    166,          4.5,           1.,           0.
    167,          4.5,          0.5,           0.
    168,          4.5,           0.,           0.
    169,           4.,           1.,           3.
    170,           4.,          0.5,           3.
    171,           4.,           0.,           3.
    172,           4.,           1.,          2.5
    173,           4.,          0.5,          2.5
    174,           4.,           0.,          2.5
    175,           4.,           1.,           2.
    176,           4.,          0.5,           2.
    177,           4.,           0.,           2.
    178,           4.,           1.,          1.5
    179,           4.,          0.5,          1.5
    180,           4.,           0.,          1.5
    181,           4.,           1.,           1.
    182,           4.,          0.5,           1.
    183,           4.,           0.,           1.
    184,           4.,           1.,          0.5
    185,           4.,          0.5,          0.5
    186,           4.,           0.,          0.5
    187,           4.,           1.,           0.
    188,           4.,          0.5,           0.
    189,           4.,           0.,           0.
    190,          3.5,           1.,           3.
    191,          3.5,          0.5,           3.
    192,          3.5,           0.,           3.
    193,          3.5,           1.,          2.5
    194,          3.5,          0.5,          2.5
    195,          3.5,           0.,          2.5
    196,          3.5,           1.,           2.
    197,          3.5,          0.5,           2.
    198,          3.5,           0.,           2.
    199,          3.5,           1.,          1.5
    200,          3.5,          0.5,          1.5
    201,          3.5,           0.,          1.5
    202,          3.5,           1.,           1.
    203,          3.5,          0.5,           1.
    204,          3.5,           0.,           1.
    205,          3.5,           1.,          0.5
    206,          3.5,          0.5,          0.5
    207,          3.5,           0.,          0.5
    208,          3.5,           1.,           0.
    209,          3.5,          0.5,           0.
    210,          3.5,           0.,           0.
    211,           3.,           1.,           3.
    212,           3.,          0.5,           3.
    213,           3.,           0.,           3.
    214,           3.,           1.,          2.5
    215,           3.,          0.5,          2.5
    216,           3.,           0.,          2.5
    217,           3.,           1.,           2.
    218,           3.,          0.5,           2.
    219,           3.,           0.,           2.
    220,           3.,           1.,          1.5
    221,           3.,          0.5,          1.5
    222,           3.,           0.,          1.5
    223,           3.,           1.,           1.
    224,           3.,          0.5,           1.
    225,           3.,           0.,           1.
    226,           3.,           1.,          0.5
    227,           3.,          0.5,          0.5
    228,           3.,           0.,          0.5
    229,           3.,           1.,           0.
    230,           3.,          0.5,           0.
    231,           3.,           0.,           0.
    232,          2.5,           1.,           3.
    233,          2.5,          0.5,           3.
    234,          2.5,           0.,           3.
    235,          2.5,           1.,          2.5
    236,          2.5,          0.5,          2.5
    237,          2.5,           0.,          2.5
    238,          2.5,           1.,           2.
    239,          2.5,          0.5,           2.
    240,          2.5,           0.,           2.
    241,          2.5,           1.,          1.5
    242,          2.5,          0.5,          1.5
    243,          2.5,           0.,          1.5
    244,          2.5,           1.,           1.
    245,          2.5,          0.5,           1.
    246,          2.5,           0.,           1.
    247,          2.5,           1.,          0.5
    248,          2.5,          0.5,          0.5
    249,          2.5,           0.,          0.5
    250,          2.5,           1.,           0.
    251,          2.5,          0.5,           0.
    252,          2.5,           0.,           0.
    253,           2.,           1.,           3.
    254,           2.,          0.5,           3.
    255,           2.,           0.,           3.
    256,           2.,           1.,          2.5
    257,           2.,          0.5,          2.5
    258,           2.,           0.,          2.5
    259,           2.,           1.,           2.
    260,           2.,          0.5,           2.
    261,           2.,           0.,           2.
    262,           2.,           1.,          1.5
    263,           2.,          0.5,          1.5
    264,           2.,           0.,          1.5
    265,           2.,           1.,           1.
    266,           2.,          0.5,           1.
    267,           2.,           0.,           1.
    268,           2.,           1.,          0.5
    269,           2.,          0.5,          0.5
    270,           2.,           0.,          0.5
    271,           2.,           1.,           0.
    272,           2.,          0.5,           0.
    273,           2.,           0.,           0.
    274,          1.5,           1.,           3.
    275,          1.5,          0.5,           3.
    276,          1.5,           0.,           3.
    277,          1.5,           1.,          2.5
    278,          1.5,          0.5,          2.5
    279,          1.5,           0.,          2.5
    280,          1.5,           1.,           2.
    281,          1.5,          0.5,           2.
    282,          1.5,           0.,           2.
    283,          1.5,           1.,          1.5
    284,          1.5,          0.5,          1.5
    285,          1.5,           0.,          1.5
    286,          1.5,           1.,           1.
    287,          1.5,          0.5,           1.
    288,          1.5,           0.,           1.
    289,          1.5,           1.,          0.5
    290,          1.5,          0.5,          0.5
    291,          1.5,           0.,          0.5
    292,          1.5,           1.,           0.
    293,          1.5,          0.5,           0.
    294,          1.5,           0.,           0.
    295,           1.,           1.,           3.
    296,           1.,          0.5,           3.
    297,           1.,           0.,           3.
    298,           1.,           1.,          2.5
    299,           1.,          0.5,          2.5
    300,           1.,           0.,          2.5
    301,           1.,           1.,           2.
    302,           1.,          0.5,           2.
    303,           1.,           0.,           2.
    304,           1.,           1.,          1.5
    305,           1.,          0.5,          1.5
    306,           1.,           0.,          1.5
    307,           1.,           1.,           1.
    308,           1.,          0.5,           1.
    309,           1.,           0.,           1.
    310,           1.,           1.,          0.5
    311,           1.,          0.5,          0.5
    312,           1.,           0.,          0.5
    313,           1.,           1.,           0.
    314,           1.,          0.5,           0.
    315,           1.,           0.,           0.
    316,          0.5,           1.,           3.
    317,          0.5,          0.5,           3.
    318,          0.5,           0.,           3.
    319,          0.5,           1.,          2.5
    320,          0.5,          0.5,          2.5
    321,          0.5,           0.,          2.5
    322,          0.5,           1.,           2.
    323,          0.5,          0.5,           2.
    324,          0.5,           0.,           2.
    325,          0.5,           1.,          1.5
    326,          0.5,          0.5,          1.5
    327,          0.5,           0.,          1.5
    328,          0.5,           1.,           1.
    329,          0.5,          0.5,           1.
    330,          0.5,           0.,           1.
    331,          0.5,           1.,          0.5
    332,          0.5,          0.5,          0.5
    333,          0.5,           0.,          0.5
    334,          0.5,           1.,           0.
    335,          0.5,          0.5,           0.
    336,          0.5,           0.,           0.
    337,           0.,           1.,           3.
    338,           0.,          0.5,           3.
    339,           0.,           0.,           3.
    340,           0.,           1.,          2.5
    341,           0.,          0.5,          2.5
    342,           0.,           0.,          2.5
    343,           0.,           1.,           2.
    344,           0.,          0.5,           2.
    345,           0.,           0.,           2.
    346,           0.,           1.,          1.5
    347,           0.,          0.5,          1.5
    348,           0.,           0.,          1.5
    349,           0.,           1.,           1.
    350,           0.,          0.5,           1.
    351,           0.,           0.,           1.
    352,           0.,           1.,          0.5
    353,           0.,          0.5,          0.5
    354,           0.,           0.,          0.5
    355,           0.,           1.,           0.
    356,           0.,          0.5,           0.
    357,           0.,           0.,           0.
*Element, type=C3D8
  1,  22,  23,  26,  25,   1,   2,   5,   4
  2,  23,  24,  27,  26,   2,   3,   6,   5
  3,  25,  26,  29,  28,   4,   5,   8,   7
  4,  26,  27,  30,  29,   5,   6,   9,   8
  5,  28,  29,  32,  31,   7,   8,  11,  10
  6,  29,  30,  33,  32,   8,   9,  12,  11
  7,  31,  32,  35,  34,  10,  11,  14,  13
  8,  32,  33,  36,  35,  11,  12,  15,  14
  9,  34,  35,  38,  37,  13,  14,  17,  16
 10,  35,  36,  39,  38,  14,  15,  18,  17
 11,  37,  38,  41,  40,  16,  17,  20,  19
 12,  38,  39,  42,  41,  17,  18,  21,  20
 13,  43,  44,  47,  46,  22,  23,  26,  25
 14,  44,  45,  48,  47,  23,  24,  27,  26
 15,  46,  47,  50,  49,  25,  26,  29,  28
 16,  47,  48,  51,  50,  26,  27,  30,  29
 17,  49,  50,  53,  52,  28,  29,  32,  31
 18,  50,  51,  54,  53,  29,  30,  33,  32
 19,  52,  53,  56,  55,  31,  32,  35,  34
 20,  53,  54,  57,  56,  32,  33,  36,  35
 21,  55,  56,  59,  58,  34,  35,  38,  37
 22,  56,  57,  60,  59,  35,  36,  39,  38
 23,  58,  59,  62,  61,  37,  38,  41,  40
 24,  59,  60,  63,  62,  38,  39,  42,  41
 25,  64,  65,  68,  67,  43,  44,  47,  46
 26,  65,  66,  69,  68,  44,  45,  48,  47
 27,  67,  68,  71,  70,  46,  47,  50,  49
 28,  68,  69,  72,  71,  47,  48,  51,  50
 29,  70,  71,  74,  73,  49,  50,  53,  52
 30,  71,  72,  75,  74,  50,  51,  54,  53
 31,  73,  74,  77,  76,  52,  53,  56,  55
 32,  74,  75,  78,  77,  53,  54,  57,  56
 33,  76,  77,  80,  79,  55,  56,  59,  58
 34,  77,  78,  81,  80,  56,  57,  60,  59
 35,  79,  80,  83,  82,  58,  59,  62,  61
 36,  80,  81,  84,  83,  59,  60,  63,  62
 37,  85,  86,  89,  88,  64,  65,  68,  67
 38,  86,  87,  90,  89,  65,  66,  69,  68
 39,  88,  89,  92,  91,  67,  68,  71,  70
 40,  89,  90,  93,  92,  68,  69,  72,  71
 41,  91,  92,  95,  94,  70,  71,  74,  73
 42,  92,  93,  96,  95,  71,  72,  75,  74
 43,  94,  95,  98,  97,  73,  74,  77,  76
 44,  95,  96,  99,  98,  74,  75,  78,  77
 45,  97,  98, 101, 100,  76,  77,  80,  79
 46,  98,  99, 102, 101,  77,  78,  81,  80
 47, 100, 101, 104, 103,  79,  80,  83,  82
 48, 101, 102, 105, 104,  80,  81,  84,  83
 49, 106, 107, 110, 109,  85,  86,  89,  88
 50, 107, 108, 111, 110,  86,  87,  90,  89
 51, 109, 110, 113, 112,  88,  89,  92,  91
 52, 110, 111, 114, 113,  89,  90,  93,  92
 53, 112, 113, 116, 115,  91,  92,  95,  94
 54, 113, 114, 117, 116,  92,  93,  96,  95
 55, 115, 116, 119, 118,  94,  95,  98,  97
 56, 116, 117, 120, 119,  95,  96,  99,  98
 57, 118, 119, 122, 121,  97,  98, 101, 100
 58, 119, 120, 123, 122,  98,  99, 102, 101
 59, 121, 122, 125, 124, 100, 101, 104, 103
 60, 122, 123, 126, 125, 101, 102, 105, 104
 61, 127, 128, 131, 130, 106, 107, 110, 109
 62, 128, 129, 132, 131, 107, 108, 111, 110
 63, 130, 131, 134, 133, 109, 110, 113, 112
 64, 131, 132, 135, 134, 110, 111, 114, 113
 65, 133, 134, 137, 136, 112, 113, 116, 115
 66, 134, 135, 138, 137, 113, 114, 117, 116
 67, 136, 137, 140, 139, 115, 116, 119, 118
 68, 137, 138, 141, 140, 116, 117, 120, 119
 69, 139, 140, 143, 142, 118, 119, 122, 121
 70, 140, 141, 144, 143, 119, 120, 123, 122
 71, 142, 143, 146, 145, 121, 122, 125, 124
 72, 143, 144, 147, 146, 122, 123, 126, 125
 73, 148, 149, 152, 151, 127, 128, 131, 130
 74, 149, 150, 153, 152, 128, 129, 132, 131
 75, 151, 152, 155, 154, 130, 131, 134, 133
 76, 152, 153, 156, 155, 131, 132, 135, 134
 77, 154, 155, 158, 157, 133, 134, 137, 136
 78, 155, 156, 159, 158, 134, 135, 138, 137
 79, 157, 158, 161, 160, 136, 137, 140, 139
 80, 158, 159, 162, 161, 137, 138, 141, 140
 81, 160, 161, 164, 163, 139, 140, 143, 142
 82, 161, 162, 165, 164, 140, 141, 144, 143
 83, 163, 164, 167, 166, 142, 143, 146, 145
 84, 164, 165, 168, 167, 143, 144, 147, 146
 85, 169, 170, 173, 172, 148, 149, 152, 151
 86, 170, 171, 174, 173, 149, 150, 153, 152
 87, 172, 173, 176, 175, 151, 152, 155, 154
 88, 173, 174, 177, 176, 152, 153, 156, 155
 89, 175, 176, 179, 178, 154, 155, 158, 157
 90, 176, 177, 180, 179, 155, 156, 159, 158
 91, 178, 179, 182, 181, 157, 158, 161, 160
 92, 179, 180, 183, 182, 158, 159, 162, 161
 93, 181, 182, 185, 184, 160, 161, 164, 163
 94, 182, 183, 186, 185, 161, 162, 165, 164
 95, 184, 185, 188, 187, 163, 164, 167, 166
 96, 185, 186, 189, 188, 164, 165, 168, 167
 97, 190, 191, 194, 193, 169, 170, 173, 172
 98, 191, 192, 195, 194, 170, 171, 174, 173
 99, 193, 194, 197, 196, 172, 173, 176, 175
100, 194, 195, 198, 197, 173, 174, 177, 176
101, 196, 197, 200, 199, 175, 176, 179, 178
102, 197, 198, 201, 200, 176, 177, 180, 179
103, 199, 200, 203, 202, 178, 179, 182, 181
104, 200, 201, 204, 203, 179, 180, 183, 182
105, 202, 203, 206, 205, 181, 182, 185, 184
106, 203, 204, 207, 206, 182, 183, 186, 185
107, 205, 206, 209, 208, 184, 185, 188, 187
108, 206, 207, 210, 209, 185, 186, 189, 188
109, 211, 212, 215, 214, 190, 191, 194, 193
110, 212, 213, 216, 215, 191, 192, 195, 194
111, 214, 215, 218, 217, 193, 194, 197, 196
112, 215, 216, 219, 218, 194, 195, 198, 197
113, 217, 218, 221, 220, 196, 197, 200, 199
114, 218, 219, 222, 221, 197, 198, 201, 200
115, 220, 221, 224, 223, 199, 200, 203, 202
116, 221, 222, 225, 224, 200, 201, 204, 203
117, 223, 224, 227, 226, 202, 203, 206, 205
118, 224, 225, 228, 227, 203, 204, 207, 206
119, 226, 227, 230, 229, 205, 206, 209, 208
120, 227, 228, 231, 230, 206, 207, 210, 209
121, 232, 233, 236, 235, 211, 212, 215, 214
122, 233, 234, 237, 236, 212, 213, 216, 215
123, 235, 236, 239, 238, 214, 215, 218, 217
124, 236, 237, 240, 239, 215, 216, 219, 218
125, 238, 239, 242, 241, 217, 218, 221, 220
126, 239, 240, 243, 242, 218, 219, 222, 221
127, 241, 242, 245, 244, 220, 221, 224, 223
128, 242, 243, 246, 245, 221, 222, 225, 224
129, 244, 245, 248, 247, 223, 224, 227, 226
130, 245, 246, 249, 248, 224, 225, 228, 227
131, 247, 248, 251, 250, 226, 227, 230, 229
132, 248, 249, 252, 251, 227, 228, 231, 230
133, 253, 254, 257, 256, 232, 233, 236, 235
134, 254, 255, 258, 257, 233, 234, 237, 236
135, 256, 257, 260, 259, 235, 236, 239, 238
136, 257, 258, 261, 260, 236, 237, 240, 239
137, 259, 260, 263, 262, 238, 239, 242, 241
138, 260, 261, 264, 263, 239, 240, 243, 242
139, 262, 263, 266, 265, 241, 242, 245, 244
140, 263, 264, 267, 266, 242, 243, 246, 245
141, 265, 266, 269, 268, 244, 245, 248, 247
142, 266, 267, 270, 269, 245, 246, 249, 248
143, 268, 269, 272, 271, 247, 248, 251, 250
144, 269, 270, 273, 272, 248, 249, 252, 251
145, 274, 275, 278, 277, 253, 254, 257, 256
146, 275, 276, 279, 278, 254, 255, 258, 257
147, 277, 278, 281, 280, 256, 257, 260, 259
148, 278, 279, 282, 281, 257, 258, 261, 260
149, 280, 281, 284, 283, 259, 260, 263, 262
150, 281, 282, 285, 284, 260, 261, 264, 263
151, 283, 284, 287, 286, 262, 263, 266, 265
152, 284, 285, 288, 287, 263, 264, 267, 266
153, 286, 287, 290, 289, 265, 266, 269, 268
154, 287, 288, 291, 290, 266, 267, 270, 269
155, 289, 290, 293, 292, 268, 269, 272, 271
156, 290, 291, 294, 293, 269, 270, 273, 272
157, 295, 296, 299, 298, 274, 275, 278, 277
158, 296, 297, 300, 299, 275, 276, 279, 278
159, 298, 299, 302, 301, 277, 278, 281, 280
160, 299, 300, 303, 302, 278, 279, 282, 281
161, 301, 302, 305, 304, 280, 281, 284, 283
162, 302, 303, 306, 305, 281, 282, 285, 284
163, 304, 305, 308, 307, 283, 284, 287, 286
164, 305, 306, 309, 308, 284, 285, 288, 287
165, 307, 308, 311, 310, 286, 287, 290, 289
166, 308, 309, 312, 311, 287, 288, 291, 290
167, 310, 311, 314, 313, 289, 290, 293, 292
168, 311, 312, 315, 314, 290, 291, 294, 293
169, 316, 317, 320, 319, 295, 296, 299, 298
170, 317, 318, 321, 320, 296, 297, 300, 299
171, 319, 320, 323, 322, 298, 299, 302, 301
172, 320, 321, 324, 323, 299, 300, 303, 302
173, 322, 323, 326, 325, 301, 302, 305, 304
174, 323, 324, 327, 326, 302, 303, 306, 305
175, 325, 326, 329, 328, 304, 305, 308, 307
176, 326, 327, 330, 329, 305, 306, 309, 308
177, 328, 329, 332, 331, 307, 308, 311, 310
178, 329, 330, 333, 332, 308, 309, 312, 311
179, 331, 332, 335, 334, 310, 311, 314, 313
180, 332, 333, 336, 335, 311, 312, 315, 314
181, 337, 338, 341, 340, 316, 317, 320, 319
182, 338, 339, 342, 341, 317, 318, 321, 320
183, 340, 341, 344, 343, 319, 320, 323, 322
184, 341, 342, 345, 344, 320, 321, 324, 323
185, 343, 344, 347, 346, 322, 323, 326, 325
186, 344, 345, 348, 347, 323, 324, 327, 326
187, 346, 347, 350, 349, 325, 326, 329, 328
188, 347, 348, 351, 350, 326, 327, 330, 329
189, 349, 350, 353, 352, 328, 329, 332, 331
190, 350, 351, 354, 353, 329, 330, 333, 332
191, 352, 353, 356, 355, 331, 332, 335, 334
192, 353, 354, 357, 356, 332, 333, 336, 335
*Nset, nset=Set-1, generate
   1,  357,    1
*Elset, elset=Set-1, generate
   1,  192,    1
** Section: Section-2
*Solid Section, elset=Set-1, material=Material-2
,
*End Instance
**  
*Instance, name=Part-2-1, part=Part-2
          0.,          1.5,           0.
*Node
      1,   7.16506338,         1.25,           3.
      2,   7.59807634,           1.,           3.
      3,   9.09807587,   3.59807611,           3.
      4,   8.66506386,   3.84807611,           3.
      5,           5.,         -0.5,           3.
      6,           5.,           0.,           3.
      7,           0.,           0.,           3.
      8,           0.,         -0.5,           3.
      9,   7.38156986,        1.125,           3.
     10,   7.74807644,   1.25980759,           3.
     11,   7.89807606,   1.51961529,           3.
     12,   8.04807663,   1.77942288,           3.
     13,   8.19807625,   2.03923059,           3.
     14,   8.34807587,   2.29903817,           3.
     15,   8.49807644,   2.55884576,           3.
     16,   8.64807606,   2.81865335,           3.
     17,   8.79807663,   3.07846093,           3.
     18,   8.94807625,   3.33826852,           3.
     19,   8.88156986,   3.72307611,           3.
     20,   8.51506329,   3.58826852,           3.
     21,   8.36506367,   3.32846093,           3.
     22,    8.2150631,   3.06865335,           3.
     23,   8.06506348,   2.80884576,           3.
     24,   7.91506338,   2.54903817,           3.
     25,   7.76506329,   2.28923059,           3.
     26,   7.61506367,   2.02942276,           3.
     27,   7.46506357,   1.76961529,           3.
     28,   7.31506348,   1.50980759,           3.
     29,           5.,        -0.25,           3.
     30,   4.70588255,           0.,           3.
     31,   4.41176462,           0.,           3.
     32,   4.11764717,           0.,           3.
     33,   3.82352948,           0.,           3.
     34,   3.52941179,           0.,           3.
     35,    3.2352941,           0.,           3.
     36,   2.94117641,           0.,           3.
     37,   2.64705873,           0.,           3.
     38,   2.35294127,           0.,           3.
     39,   2.05882359,           0.,           3.
     40,    1.7647059,           0.,           3.
     41,   1.47058821,           0.,           3.
     42,   1.17647064,           0.,           3.
     43,  0.882352948,           0.,           3.
     44,  0.588235319,           0.,           3.
     45,  0.294117659,           0.,           3.
     46,           0.,        -0.25,           3.
     47,  0.294117659,         -0.5,           3.
     48,  0.588235319,         -0.5,           3.
     49,  0.882352948,         -0.5,           3.
     50,   1.17647064,         -0.5,           3.
     51,   1.47058821,         -0.5,           3.
     52,    1.7647059,         -0.5,           3.
     53,   2.05882359,         -0.5,           3.
     54,   2.35294127,         -0.5,           3.
     55,   2.64705873,         -0.5,           3.
     56,   2.94117641,         -0.5,           3.
     57,    3.2352941,         -0.5,           3.
     58,   3.52941179,         -0.5,           3.
     59,   3.82352948,         -0.5,           3.
     60,   4.11764717,         -0.5,           3.
     61,   4.41176462,         -0.5,           3.
     62,   4.70588255,         -0.5,           3.
     63,   5.31358528, -0.483565688,           3.
     64,   5.62373495, -0.434442788,           3.
     65,   5.92705107,  -0.35316956,           3.
     66,   6.22021008, -0.240636379,           3.
     67,          6.5, -0.0980762094,           3.
     68,   6.76335573, 0.0729490146,           3.
     69,   7.00739193,   0.27056551,           3.
     70,   7.22943449,   0.49260819,           3.
     71,   7.42705107,  0.736644268,           3.
     72,   7.02254248,   1.03053689,           3.
     73,     6.857862,  0.827173471,           3.
     74,   6.67282629,  0.642137945,           3.
     75,   6.46946335,  0.477457523,           3.
     76,         6.25,    0.3349365,           3.
     77,   6.01684141,  0.216136351,           3.
     78,   5.77254248,   0.12235871,           3.
     79,   5.51977921, 0.0546309985,           3.
     80,   5.26132107, 0.0136952614,           3.
     81,   7.53156996,   1.38480759,           3.
     82,   7.68157005,   1.64461529,           3.
     83,   7.83156967,   1.90442288,           3.
     84,   7.98156977,   2.16423059,           3.
     85,   8.13156986,   2.42403817,           3.
     86,   8.28156948,   2.68384576,           3.
     87,   8.43157005,   2.94365335,           3.
     88,   8.58156967,   3.20346093,           3.
     89,   8.73157024,   3.46326852,           3.
     90,   4.70588255,        -0.25,           3.
     91,   4.41176462,        -0.25,           3.
     92,   4.11764717,        -0.25,           3.
     93,   3.82352948,        -0.25,           3.
     94,   3.52941179,        -0.25,           3.
     95,    3.2352941,        -0.25,           3.
     96,   2.94117641,        -0.25,           3.
     97,   2.64705873,        -0.25,           3.
     98,   2.35294127,        -0.25,           3.
     99,   2.05882359,        -0.25,           3.
    100,    1.7647059,        -0.25,           3.
    101,   1.47058821,        -0.25,           3.
    102,   1.17647064,        -0.25,           3.
    103,  0.882352948,        -0.25,           3.
    104,  0.588235319,        -0.25,           3.
    105,  0.294117659,        -0.25,           3.
    106,   5.28745317, -0.234935209,           3.
    107,   5.57175732, -0.189905897,           3.
    108,   5.84979677, -0.115405418,           3.
    109,   6.11852598, -0.0122500081,           3.
    110,        6.375,  0.118430138,           3.
    111,    6.6164093,  0.275203258,           3.
    112,   6.84010935,  0.456351727,           3.
    113,   7.04364824,  0.659890831,           3.
    114,   7.22479677,  0.883590579,           3.
    115,   7.16506338,         1.25,   2.70000005
    116,   7.59807634,           1.,   2.70000005
    117,   9.09807587,   3.59807611,   2.70000005
    118,   8.66506386,   3.84807611,   2.70000005
    119,           5.,         -0.5,   2.70000005
    120,           5.,           0.,   2.70000005
    121,           0.,           0.,   2.70000005
    122,           0.,         -0.5,   2.70000005
    123,   7.38156986,        1.125,   2.70000005
    124,   7.74807644,   1.25980759,   2.70000005
    125,   7.89807606,   1.51961529,   2.70000005
    126,   8.04807663,   1.77942288,   2.70000005
    127,   8.19807625,   2.03923059,   2.70000005
    128,   8.34807587,   2.29903817,   2.70000005
    129,   8.49807644,   2.55884576,   2.70000005
    130,   8.64807606,   2.81865335,   2.70000005
    131,   8.79807663,   3.07846093,   2.70000005
    132,   8.94807625,   3.33826852,   2.70000005
    133,   8.88156986,   3.72307611,   2.70000005
    134,   8.51506329,   3.58826852,   2.70000005
    135,   8.36506367,   3.32846093,   2.70000005
    136,    8.2150631,   3.06865335,   2.70000005
    137,   8.06506348,   2.80884576,   2.70000005
    138,   7.91506338,   2.54903817,   2.70000005
    139,   7.76506329,   2.28923059,   2.70000005
    140,   7.61506367,   2.02942276,   2.70000005
    141,   7.46506357,   1.76961529,   2.70000005
    142,   7.31506348,   1.50980759,   2.70000005
    143,           5.,        -0.25,   2.70000005
    144,   4.70588255,           0.,   2.70000005
    145,   4.41176462,           0.,   2.70000005
    146,   4.11764717,           0.,   2.70000005
    147,   3.82352948,           0.,   2.70000005
    148,   3.52941179,           0.,   2.70000005
    149,    3.2352941,           0.,   2.70000005
    150,   2.94117641,           0.,   2.70000005
    151,   2.64705873,           0.,   2.70000005
    152,   2.35294127,           0.,   2.70000005
    153,   2.05882359,           0.,   2.70000005
    154,    1.7647059,           0.,   2.70000005
    155,   1.47058821,           0.,   2.70000005
    156,   1.17647064,           0.,   2.70000005
    157,  0.882352948,           0.,   2.70000005
    158,  0.588235319,           0.,   2.70000005
    159,  0.294117659,           0.,   2.70000005
    160,           0.,        -0.25,   2.70000005
    161,  0.294117659,         -0.5,   2.70000005
    162,  0.588235319,         -0.5,   2.70000005
    163,  0.882352948,         -0.5,   2.70000005
    164,   1.17647064,         -0.5,   2.70000005
    165,   1.47058821,         -0.5,   2.70000005
    166,    1.7647059,         -0.5,   2.70000005
    167,   2.05882359,         -0.5,   2.70000005
    168,   2.35294127,         -0.5,   2.70000005
    169,   2.64705873,         -0.5,   2.70000005
    170,   2.94117641,         -0.5,   2.70000005
    171,    3.2352941,         -0.5,   2.70000005
    172,   3.52941179,         -0.5,   2.70000005
    173,   3.82352948,         -0.5,   2.70000005
    174,   4.11764717,         -0.5,   2.70000005
    175,   4.41176462,         -0.5,   2.70000005
    176,   4.70588255,         -0.5,   2.70000005
    177,   5.31358528, -0.483565688,   2.70000005
    178,   5.62373495, -0.434442788,   2.70000005
    179,   5.92705107,  -0.35316956,   2.70000005
    180,   6.22021008, -0.240636379,   2.70000005
    181,          6.5, -0.0980762094,   2.70000005
    182,   6.76335573, 0.0729490146,   2.70000005
    183,   7.00739193,   0.27056551,   2.70000005
    184,   7.22943449,   0.49260819,   2.70000005
    185,   7.42705107,  0.736644268,   2.70000005
    186,   7.02254248,   1.03053689,   2.70000005
    187,     6.857862,  0.827173471,   2.70000005
    188,   6.67282629,  0.642137945,   2.70000005
    189,   6.46946335,  0.477457523,   2.70000005
    190,         6.25,    0.3349365,   2.70000005
    191,   6.01684141,  0.216136351,   2.70000005
    192,   5.77254248,   0.12235871,   2.70000005
    193,   5.51977921, 0.0546309985,   2.70000005
    194,   5.26132107, 0.0136952614,   2.70000005
    195,   7.53156996,   1.38480759,   2.70000005
    196,   7.68157005,   1.64461529,   2.70000005
    197,   7.83156967,   1.90442288,   2.70000005
    198,   7.98156977,   2.16423059,   2.70000005
    199,   8.13156986,   2.42403817,   2.70000005
    200,   8.28156948,   2.68384576,   2.70000005
    201,   8.43157005,   2.94365335,   2.70000005
    202,   8.58156967,   3.20346093,   2.70000005
    203,   8.73157024,   3.46326852,   2.70000005
    204,   4.70588255,        -0.25,   2.70000005
    205,   4.41176462,        -0.25,   2.70000005
    206,   4.11764717,        -0.25,   2.70000005
    207,   3.82352948,        -0.25,   2.70000005
    208,   3.52941179,        -0.25,   2.70000005
    209,    3.2352941,        -0.25,   2.70000005
    210,   2.94117641,        -0.25,   2.70000005
    211,   2.64705873,        -0.25,   2.70000005
    212,   2.35294127,        -0.25,   2.70000005
    213,   2.05882359,        -0.25,   2.70000005
    214,    1.7647059,        -0.25,   2.70000005
    215,   1.47058821,        -0.25,   2.70000005
    216,   1.17647064,        -0.25,   2.70000005
    217,  0.882352948,        -0.25,   2.70000005
    218,  0.588235319,        -0.25,   2.70000005
    219,  0.294117659,        -0.25,   2.70000005
    220,   5.28745317, -0.234935209,   2.70000005
    221,   5.57175732, -0.189905897,   2.70000005
    222,   5.84979677, -0.115405418,   2.70000005
    223,   6.11852598, -0.0122500081,   2.70000005
    224,        6.375,  0.118430138,   2.70000005
    225,    6.6164093,  0.275203258,   2.70000005
    226,   6.84010935,  0.456351727,   2.70000005
    227,   7.04364824,  0.659890831,   2.70000005
    228,   7.22479677,  0.883590579,   2.70000005
    229,   7.16506338,         1.25,    2.4000001
    230,   7.59807634,           1.,    2.4000001
    231,   9.09807587,   3.59807611,    2.4000001
    232,   8.66506386,   3.84807611,    2.4000001
    233,           5.,         -0.5,    2.4000001
    234,           5.,           0.,    2.4000001
    235,           0.,           0.,    2.4000001
    236,           0.,         -0.5,    2.4000001
    237,   7.38156986,        1.125,    2.4000001
    238,   7.74807644,   1.25980759,    2.4000001
    239,   7.89807606,   1.51961529,    2.4000001
    240,   8.04807663,   1.77942288,    2.4000001
    241,   8.19807625,   2.03923059,    2.4000001
    242,   8.34807587,   2.29903817,    2.4000001
    243,   8.49807644,   2.55884576,    2.4000001
    244,   8.64807606,   2.81865335,    2.4000001
    245,   8.79807663,   3.07846093,    2.4000001
    246,   8.94807625,   3.33826852,    2.4000001
    247,   8.88156986,   3.72307611,    2.4000001
    248,   8.51506329,   3.58826852,    2.4000001
    249,   8.36506367,   3.32846093,    2.4000001
    250,    8.2150631,   3.06865335,    2.4000001
    251,   8.06506348,   2.80884576,    2.4000001
    252,   7.91506338,   2.54903817,    2.4000001
    253,   7.76506329,   2.28923059,    2.4000001
    254,   7.61506367,   2.02942276,    2.4000001
    255,   7.46506357,   1.76961529,    2.4000001
    256,   7.31506348,   1.50980759,    2.4000001
    257,           5.,        -0.25,    2.4000001
    258,   4.70588255,           0.,    2.4000001
    259,   4.41176462,           0.,    2.4000001
    260,   4.11764717,           0.,    2.4000001
    261,   3.82352948,           0.,    2.4000001
    262,   3.52941179,           0.,    2.4000001
    263,    3.2352941,           0.,    2.4000001
    264,   2.94117641,           0.,    2.4000001
    265,   2.64705873,           0.,    2.4000001
    266,   2.35294127,           0.,    2.4000001
    267,   2.05882359,           0.,    2.4000001
    268,    1.7647059,           0.,    2.4000001
    269,   1.47058821,           0.,    2.4000001
    270,   1.17647064,           0.,    2.4000001
    271,  0.882352948,           0.,    2.4000001
    272,  0.588235319,           0.,    2.4000001
    273,  0.294117659,           0.,    2.4000001
    274,           0.,        -0.25,    2.4000001
    275,  0.294117659,         -0.5,    2.4000001
    276,  0.588235319,         -0.5,    2.4000001
    277,  0.882352948,         -0.5,    2.4000001
    278,   1.17647064,         -0.5,    2.4000001
    279,   1.47058821,         -0.5,    2.4000001
    280,    1.7647059,         -0.5,    2.4000001
    281,   2.05882359,         -0.5,    2.4000001
    282,   2.35294127,         -0.5,    2.4000001
    283,   2.64705873,         -0.5,    2.4000001
    284,   2.94117641,         -0.5,    2.4000001
    285,    3.2352941,         -0.5,    2.4000001
    286,   3.52941179,         -0.5,    2.4000001
    287,   3.82352948,         -0.5,    2.4000001
    288,   4.11764717,         -0.5,    2.4000001
    289,   4.41176462,         -0.5,    2.4000001
    290,   4.70588255,         -0.5,    2.4000001
    291,   5.31358528, -0.483565688,    2.4000001
    292,   5.62373495, -0.434442788,    2.4000001
    293,   5.92705107,  -0.35316956,    2.4000001
    294,   6.22021008, -0.240636379,    2.4000001
    295,          6.5, -0.0980762094,    2.4000001
    296,   6.76335573, 0.0729490146,    2.4000001
    297,   7.00739193,   0.27056551,    2.4000001
    298,   7.22943449,   0.49260819,    2.4000001
    299,   7.42705107,  0.736644268,    2.4000001
    300,   7.02254248,   1.03053689,    2.4000001
    301,     6.857862,  0.827173471,    2.4000001
    302,   6.67282629,  0.642137945,    2.4000001
    303,   6.46946335,  0.477457523,    2.4000001
    304,         6.25,    0.3349365,    2.4000001
    305,   6.01684141,  0.216136351,    2.4000001
    306,   5.77254248,   0.12235871,    2.4000001
    307,   5.51977921, 0.0546309985,    2.4000001
    308,   5.26132107, 0.0136952614,    2.4000001
    309,   7.53156996,   1.38480759,    2.4000001
    310,   7.68157005,   1.64461529,    2.4000001
    311,   7.83156967,   1.90442288,    2.4000001
    312,   7.98156977,   2.16423059,    2.4000001
    313,   8.13156986,   2.42403817,    2.4000001
    314,   8.28156948,   2.68384576,    2.4000001
    315,   8.43157005,   2.94365335,    2.4000001
    316,   8.58156967,   3.20346093,    2.4000001
    317,   8.73157024,   3.46326852,    2.4000001
    318,   4.70588255,        -0.25,    2.4000001
    319,   4.41176462,        -0.25,    2.4000001
    320,   4.11764717,        -0.25,    2.4000001
    321,   3.82352948,        -0.25,    2.4000001
    322,   3.52941179,        -0.25,    2.4000001
    323,    3.2352941,        -0.25,    2.4000001
    324,   2.94117641,        -0.25,    2.4000001
    325,   2.64705873,        -0.25,    2.4000001
    326,   2.35294127,        -0.25,    2.4000001
    327,   2.05882359,        -0.25,    2.4000001
    328,    1.7647059,        -0.25,    2.4000001
    329,   1.47058821,        -0.25,    2.4000001
    330,   1.17647064,        -0.25,    2.4000001
    331,  0.882352948,        -0.25,    2.4000001
    332,  0.588235319,        -0.25,    2.4000001
    333,  0.294117659,        -0.25,    2.4000001
    334,   5.28745317, -0.234935209,    2.4000001
    335,   5.57175732, -0.189905897,    2.4000001
    336,   5.84979677, -0.115405418,    2.4000001
    337,   6.11852598, -0.0122500081,    2.4000001
    338,        6.375,  0.118430138,    2.4000001
    339,    6.6164093,  0.275203258,    2.4000001
    340,   6.84010935,  0.456351727,    2.4000001
    341,   7.04364824,  0.659890831,    2.4000001
    342,   7.22479677,  0.883590579,    2.4000001
    343,   7.16506338,         1.25,    2.0999999
    344,   7.59807634,           1.,    2.0999999
    345,   9.09807587,   3.59807611,    2.0999999
    346,   8.66506386,   3.84807611,    2.0999999
    347,           5.,         -0.5,    2.0999999
    348,           5.,           0.,    2.0999999
    349,           0.,           0.,    2.0999999
    350,           0.,         -0.5,    2.0999999
    351,   7.38156986,        1.125,    2.0999999
    352,   7.74807644,   1.25980759,    2.0999999
    353,   7.89807606,   1.51961529,    2.0999999
    354,   8.04807663,   1.77942288,    2.0999999
    355,   8.19807625,   2.03923059,    2.0999999
    356,   8.34807587,   2.29903817,    2.0999999
    357,   8.49807644,   2.55884576,    2.0999999
    358,   8.64807606,   2.81865335,    2.0999999
    359,   8.79807663,   3.07846093,    2.0999999
    360,   8.94807625,   3.33826852,    2.0999999
    361,   8.88156986,   3.72307611,    2.0999999
    362,   8.51506329,   3.58826852,    2.0999999
    363,   8.36506367,   3.32846093,    2.0999999
    364,    8.2150631,   3.06865335,    2.0999999
    365,   8.06506348,   2.80884576,    2.0999999
    366,   7.91506338,   2.54903817,    2.0999999
    367,   7.76506329,   2.28923059,    2.0999999
    368,   7.61506367,   2.02942276,    2.0999999
    369,   7.46506357,   1.76961529,    2.0999999
    370,   7.31506348,   1.50980759,    2.0999999
    371,           5.,        -0.25,    2.0999999
    372,   4.70588255,           0.,    2.0999999
    373,   4.41176462,           0.,    2.0999999
    374,   4.11764717,           0.,    2.0999999
    375,   3.82352948,           0.,    2.0999999
    376,   3.52941179,           0.,    2.0999999
    377,    3.2352941,           0.,    2.0999999
    378,   2.94117641,           0.,    2.0999999
    379,   2.64705873,           0.,    2.0999999
    380,   2.35294127,           0.,    2.0999999
    381,   2.05882359,           0.,    2.0999999
    382,    1.7647059,           0.,    2.0999999
    383,   1.47058821,           0.,    2.0999999
    384,   1.17647064,           0.,    2.0999999
    385,  0.882352948,           0.,    2.0999999
    386,  0.588235319,           0.,    2.0999999
    387,  0.294117659,           0.,    2.0999999
    388,           0.,        -0.25,    2.0999999
    389,  0.294117659,         -0.5,    2.0999999
    390,  0.588235319,         -0.5,    2.0999999
    391,  0.882352948,         -0.5,    2.0999999
    392,   1.17647064,         -0.5,    2.0999999
    393,   1.47058821,         -0.5,    2.0999999
    394,    1.7647059,         -0.5,    2.0999999
    395,   2.05882359,         -0.5,    2.0999999
    396,   2.35294127,         -0.5,    2.0999999
    397,   2.64705873,         -0.5,    2.0999999
    398,   2.94117641,         -0.5,    2.0999999
    399,    3.2352941,         -0.5,    2.0999999
    400,   3.52941179,         -0.5,    2.0999999
    401,   3.82352948,         -0.5,    2.0999999
    402,   4.11764717,         -0.5,    2.0999999
    403,   4.41176462,         -0.5,    2.0999999
    404,   4.70588255,         -0.5,    2.0999999
    405,   5.31358528, -0.483565688,    2.0999999
    406,   5.62373495, -0.434442788,    2.0999999
    407,   5.92705107,  -0.35316956,    2.0999999
    408,   6.22021008, -0.240636379,    2.0999999
    409,          6.5, -0.0980762094,    2.0999999
    410,   6.76335573, 0.0729490146,    2.0999999
    411,   7.00739193,   0.27056551,    2.0999999
    412,   7.22943449,   0.49260819,    2.0999999
    413,   7.42705107,  0.736644268,    2.0999999
    414,   7.02254248,   1.03053689,    2.0999999
    415,     6.857862,  0.827173471,    2.0999999
    416,   6.67282629,  0.642137945,    2.0999999
    417,   6.46946335,  0.477457523,    2.0999999
    418,         6.25,    0.3349365,    2.0999999
    419,   6.01684141,  0.216136351,    2.0999999
    420,   5.77254248,   0.12235871,    2.0999999
    421,   5.51977921, 0.0546309985,    2.0999999
    422,   5.26132107, 0.0136952614,    2.0999999
    423,   7.53156996,   1.38480759,    2.0999999
    424,   7.68157005,   1.64461529,    2.0999999
    425,   7.83156967,   1.90442288,    2.0999999
    426,   7.98156977,   2.16423059,    2.0999999
    427,   8.13156986,   2.42403817,    2.0999999
    428,   8.28156948,   2.68384576,    2.0999999
    429,   8.43157005,   2.94365335,    2.0999999
    430,   8.58156967,   3.20346093,    2.0999999
    431,   8.73157024,   3.46326852,    2.0999999
    432,   4.70588255,        -0.25,    2.0999999
    433,   4.41176462,        -0.25,    2.0999999
    434,   4.11764717,        -0.25,    2.0999999
    435,   3.82352948,        -0.25,    2.0999999
    436,   3.52941179,        -0.25,    2.0999999
    437,    3.2352941,        -0.25,    2.0999999
    438,   2.94117641,        -0.25,    2.0999999
    439,   2.64705873,        -0.25,    2.0999999
    440,   2.35294127,        -0.25,    2.0999999
    441,   2.05882359,        -0.25,    2.0999999
    442,    1.7647059,        -0.25,    2.0999999
    443,   1.47058821,        -0.25,    2.0999999
    444,   1.17647064,        -0.25,    2.0999999
    445,  0.882352948,        -0.25,    2.0999999
    446,  0.588235319,        -0.25,    2.0999999
    447,  0.294117659,        -0.25,    2.0999999
    448,   5.28745317, -0.234935209,    2.0999999
    449,   5.57175732, -0.189905897,    2.0999999
    450,   5.84979677, -0.115405418,    2.0999999
    451,   6.11852598, -0.0122500081,    2.0999999
    452,        6.375,  0.118430138,    2.0999999
    453,    6.6164093,  0.275203258,    2.0999999
    454,   6.84010935,  0.456351727,    2.0999999
    455,   7.04364824,  0.659890831,    2.0999999
    456,   7.22479677,  0.883590579,    2.0999999
    457,   7.16506338,         1.25,   1.79999995
    458,   7.59807634,           1.,   1.79999995
    459,   9.09807587,   3.59807611,   1.79999995
    460,   8.66506386,   3.84807611,   1.79999995
    461,           5.,         -0.5,   1.79999995
    462,           5.,           0.,   1.79999995
    463,           0.,           0.,   1.79999995
    464,           0.,         -0.5,   1.79999995
    465,   7.38156986,        1.125,   1.79999995
    466,   7.74807644,   1.25980759,   1.79999995
    467,   7.89807606,   1.51961529,   1.79999995
    468,   8.04807663,   1.77942288,   1.79999995
    469,   8.19807625,   2.03923059,   1.79999995
    470,   8.34807587,   2.29903817,   1.79999995
    471,   8.49807644,   2.55884576,   1.79999995
    472,   8.64807606,   2.81865335,   1.79999995
    473,   8.79807663,   3.07846093,   1.79999995
    474,   8.94807625,   3.33826852,   1.79999995
    475,   8.88156986,   3.72307611,   1.79999995
    476,   8.51506329,   3.58826852,   1.79999995
    477,   8.36506367,   3.32846093,   1.79999995
    478,    8.2150631,   3.06865335,   1.79999995
    479,   8.06506348,   2.80884576,   1.79999995
    480,   7.91506338,   2.54903817,   1.79999995
    481,   7.76506329,   2.28923059,   1.79999995
    482,   7.61506367,   2.02942276,   1.79999995
    483,   7.46506357,   1.76961529,   1.79999995
    484,   7.31506348,   1.50980759,   1.79999995
    485,           5.,        -0.25,   1.79999995
    486,   4.70588255,           0.,   1.79999995
    487,   4.41176462,           0.,   1.79999995
    488,   4.11764717,           0.,   1.79999995
    489,   3.82352948,           0.,   1.79999995
    490,   3.52941179,           0.,   1.79999995
    491,    3.2352941,           0.,   1.79999995
    492,   2.94117641,           0.,   1.79999995
    493,   2.64705873,           0.,   1.79999995
    494,   2.35294127,           0.,   1.79999995
    495,   2.05882359,           0.,   1.79999995
    496,    1.7647059,           0.,   1.79999995
    497,   1.47058821,           0.,   1.79999995
    498,   1.17647064,           0.,   1.79999995
    499,  0.882352948,           0.,   1.79999995
    500,  0.588235319,           0.,   1.79999995
    501,  0.294117659,           0.,   1.79999995
    502,           0.,        -0.25,   1.79999995
    503,  0.294117659,         -0.5,   1.79999995
    504,  0.588235319,         -0.5,   1.79999995
    505,  0.882352948,         -0.5,   1.79999995
    506,   1.17647064,         -0.5,   1.79999995
    507,   1.47058821,         -0.5,   1.79999995
    508,    1.7647059,         -0.5,   1.79999995
    509,   2.05882359,         -0.5,   1.79999995
    510,   2.35294127,         -0.5,   1.79999995
    511,   2.64705873,         -0.5,   1.79999995
    512,   2.94117641,         -0.5,   1.79999995
    513,    3.2352941,         -0.5,   1.79999995
    514,   3.52941179,         -0.5,   1.79999995
    515,   3.82352948,         -0.5,   1.79999995
    516,   4.11764717,         -0.5,   1.79999995
    517,   4.41176462,         -0.5,   1.79999995
    518,   4.70588255,         -0.5,   1.79999995
    519,   5.31358528, -0.483565688,   1.79999995
    520,   5.62373495, -0.434442788,   1.79999995
    521,   5.92705107,  -0.35316956,   1.79999995
    522,   6.22021008, -0.240636379,   1.79999995
    523,          6.5, -0.0980762094,   1.79999995
    524,   6.76335573, 0.0729490146,   1.79999995
    525,   7.00739193,   0.27056551,   1.79999995
    526,   7.22943449,   0.49260819,   1.79999995
    527,   7.42705107,  0.736644268,   1.79999995
    528,   7.02254248,   1.03053689,   1.79999995
    529,     6.857862,  0.827173471,   1.79999995
    530,   6.67282629,  0.642137945,   1.79999995
    531,   6.46946335,  0.477457523,   1.79999995
    532,         6.25,    0.3349365,   1.79999995
    533,   6.01684141,  0.216136351,   1.79999995
    534,   5.77254248,   0.12235871,   1.79999995
    535,   5.51977921, 0.0546309985,   1.79999995
    536,   5.26132107, 0.0136952614,   1.79999995
    537,   7.53156996,   1.38480759,   1.79999995
    538,   7.68157005,   1.64461529,   1.79999995
    539,   7.83156967,   1.90442288,   1.79999995
    540,   7.98156977,   2.16423059,   1.79999995
    541,   8.13156986,   2.42403817,   1.79999995
    542,   8.28156948,   2.68384576,   1.79999995
    543,   8.43157005,   2.94365335,   1.79999995
    544,   8.58156967,   3.20346093,   1.79999995
    545,   8.73157024,   3.46326852,   1.79999995
    546,   4.70588255,        -0.25,   1.79999995
    547,   4.41176462,        -0.25,   1.79999995
    548,   4.11764717,        -0.25,   1.79999995
    549,   3.82352948,        -0.25,   1.79999995
    550,   3.52941179,        -0.25,   1.79999995
    551,    3.2352941,        -0.25,   1.79999995
    552,   2.94117641,        -0.25,   1.79999995
    553,   2.64705873,        -0.25,   1.79999995
    554,   2.35294127,        -0.25,   1.79999995
    555,   2.05882359,        -0.25,   1.79999995
    556,    1.7647059,        -0.25,   1.79999995
    557,   1.47058821,        -0.25,   1.79999995
    558,   1.17647064,        -0.25,   1.79999995
    559,  0.882352948,        -0.25,   1.79999995
    560,  0.588235319,        -0.25,   1.79999995
    561,  0.294117659,        -0.25,   1.79999995
    562,   5.28745317, -0.234935209,   1.79999995
    563,   5.57175732, -0.189905897,   1.79999995
    564,   5.84979677, -0.115405418,   1.79999995
    565,   6.11852598, -0.0122500081,   1.79999995
    566,        6.375,  0.118430138,   1.79999995
    567,    6.6164093,  0.275203258,   1.79999995
    568,   6.84010935,  0.456351727,   1.79999995
    569,   7.04364824,  0.659890831,   1.79999995
    570,   7.22479677,  0.883590579,   1.79999995
    571,   7.16506338,         1.25,          1.5
    572,   7.59807634,           1.,          1.5
    573,   9.09807587,   3.59807611,          1.5
    574,   8.66506386,   3.84807611,          1.5
    575,           5.,         -0.5,          1.5
    576,           5.,           0.,          1.5
    577,           0.,           0.,          1.5
    578,           0.,         -0.5,          1.5
    579,   7.38156986,        1.125,          1.5
    580,   7.74807644,   1.25980759,          1.5
    581,   7.89807606,   1.51961529,          1.5
    582,   8.04807663,   1.77942288,          1.5
    583,   8.19807625,   2.03923059,          1.5
    584,   8.34807587,   2.29903817,          1.5
    585,   8.49807644,   2.55884576,          1.5
    586,   8.64807606,   2.81865335,          1.5
    587,   8.79807663,   3.07846093,          1.5
    588,   8.94807625,   3.33826852,          1.5
    589,   8.88156986,   3.72307611,          1.5
    590,   8.51506329,   3.58826852,          1.5
    591,   8.36506367,   3.32846093,          1.5
    592,    8.2150631,   3.06865335,          1.5
    593,   8.06506348,   2.80884576,          1.5
    594,   7.91506338,   2.54903817,          1.5
    595,   7.76506329,   2.28923059,          1.5
    596,   7.61506367,   2.02942276,          1.5
    597,   7.46506357,   1.76961529,          1.5
    598,   7.31506348,   1.50980759,          1.5
    599,           5.,        -0.25,          1.5
    600,   4.70588255,           0.,          1.5
    601,   4.41176462,           0.,          1.5
    602,   4.11764717,           0.,          1.5
    603,   3.82352948,           0.,          1.5
    604,   3.52941179,           0.,          1.5
    605,    3.2352941,           0.,          1.5
    606,   2.94117641,           0.,          1.5
    607,   2.64705873,           0.,          1.5
    608,   2.35294127,           0.,          1.5
    609,   2.05882359,           0.,          1.5
    610,    1.7647059,           0.,          1.5
    611,   1.47058821,           0.,          1.5
    612,   1.17647064,           0.,          1.5
    613,  0.882352948,           0.,          1.5
    614,  0.588235319,           0.,          1.5
    615,  0.294117659,           0.,          1.5
    616,           0.,        -0.25,          1.5
    617,  0.294117659,         -0.5,          1.5
    618,  0.588235319,         -0.5,          1.5
    619,  0.882352948,         -0.5,          1.5
    620,   1.17647064,         -0.5,          1.5
    621,   1.47058821,         -0.5,          1.5
    622,    1.7647059,         -0.5,          1.5
    623,   2.05882359,         -0.5,          1.5
    624,   2.35294127,         -0.5,          1.5
    625,   2.64705873,         -0.5,          1.5
    626,   2.94117641,         -0.5,          1.5
    627,    3.2352941,         -0.5,          1.5
    628,   3.52941179,         -0.5,          1.5
    629,   3.82352948,         -0.5,          1.5
    630,   4.11764717,         -0.5,          1.5
    631,   4.41176462,         -0.5,          1.5
    632,   4.70588255,         -0.5,          1.5
    633,   5.31358528, -0.483565688,          1.5
    634,   5.62373495, -0.434442788,          1.5
    635,   5.92705107,  -0.35316956,          1.5
    636,   6.22021008, -0.240636379,          1.5
    637,          6.5, -0.0980762094,          1.5
    638,   6.76335573, 0.0729490146,          1.5
    639,   7.00739193,   0.27056551,          1.5
    640,   7.22943449,   0.49260819,          1.5
    641,   7.42705107,  0.736644268,          1.5
    642,   7.02254248,   1.03053689,          1.5
    643,     6.857862,  0.827173471,          1.5
    644,   6.67282629,  0.642137945,          1.5
    645,   6.46946335,  0.477457523,          1.5
    646,         6.25,    0.3349365,          1.5
    647,   6.01684141,  0.216136351,          1.5
    648,   5.77254248,   0.12235871,          1.5
    649,   5.51977921, 0.0546309985,          1.5
    650,   5.26132107, 0.0136952614,          1.5
    651,   7.53156996,   1.38480759,          1.5
    652,   7.68157005,   1.64461529,          1.5
    653,   7.83156967,   1.90442288,          1.5
    654,   7.98156977,   2.16423059,          1.5
    655,   8.13156986,   2.42403817,          1.5
    656,   8.28156948,   2.68384576,          1.5
    657,   8.43157005,   2.94365335,          1.5
    658,   8.58156967,   3.20346093,          1.5
    659,   8.73157024,   3.46326852,          1.5
    660,   4.70588255,        -0.25,          1.5
    661,   4.41176462,        -0.25,          1.5
    662,   4.11764717,        -0.25,          1.5
    663,   3.82352948,        -0.25,          1.5
    664,   3.52941179,        -0.25,          1.5
    665,    3.2352941,        -0.25,          1.5
    666,   2.94117641,        -0.25,          1.5
    667,   2.64705873,        -0.25,          1.5
    668,   2.35294127,        -0.25,          1.5
    669,   2.05882359,        -0.25,          1.5
    670,    1.7647059,        -0.25,          1.5
    671,   1.47058821,        -0.25,          1.5
    672,   1.17647064,        -0.25,          1.5
    673,  0.882352948,        -0.25,          1.5
    674,  0.588235319,        -0.25,          1.5
    675,  0.294117659,        -0.25,          1.5
    676,   5.28745317, -0.234935209,          1.5
    677,   5.57175732, -0.189905897,          1.5
    678,   5.84979677, -0.115405418,          1.5
    679,   6.11852598, -0.0122500081,          1.5
    680,        6.375,  0.118430138,          1.5
    681,    6.6164093,  0.275203258,          1.5
    682,   6.84010935,  0.456351727,          1.5
    683,   7.04364824,  0.659890831,          1.5
    684,   7.22479677,  0.883590579,          1.5
    685,   7.16506338,         1.25,   1.20000005
    686,   7.59807634,           1.,   1.20000005
    687,   9.09807587,   3.59807611,   1.20000005
    688,   8.66506386,   3.84807611,   1.20000005
    689,           5.,         -0.5,   1.20000005
    690,           5.,           0.,   1.20000005
    691,           0.,           0.,   1.20000005
    692,           0.,         -0.5,   1.20000005
    693,   7.38156986,        1.125,   1.20000005
    694,   7.74807644,   1.25980759,   1.20000005
    695,   7.89807606,   1.51961529,   1.20000005
    696,   8.04807663,   1.77942288,   1.20000005
    697,   8.19807625,   2.03923059,   1.20000005
    698,   8.34807587,   2.29903817,   1.20000005
    699,   8.49807644,   2.55884576,   1.20000005
    700,   8.64807606,   2.81865335,   1.20000005
    701,   8.79807663,   3.07846093,   1.20000005
    702,   8.94807625,   3.33826852,   1.20000005
    703,   8.88156986,   3.72307611,   1.20000005
    704,   8.51506329,   3.58826852,   1.20000005
    705,   8.36506367,   3.32846093,   1.20000005
    706,    8.2150631,   3.06865335,   1.20000005
    707,   8.06506348,   2.80884576,   1.20000005
    708,   7.91506338,   2.54903817,   1.20000005
    709,   7.76506329,   2.28923059,   1.20000005
    710,   7.61506367,   2.02942276,   1.20000005
    711,   7.46506357,   1.76961529,   1.20000005
    712,   7.31506348,   1.50980759,   1.20000005
    713,           5.,        -0.25,   1.20000005
    714,   4.70588255,           0.,   1.20000005
    715,   4.41176462,           0.,   1.20000005
    716,   4.11764717,           0.,   1.20000005
    717,   3.82352948,           0.,   1.20000005
    718,   3.52941179,           0.,   1.20000005
    719,    3.2352941,           0.,   1.20000005
    720,   2.94117641,           0.,   1.20000005
    721,   2.64705873,           0.,   1.20000005
    722,   2.35294127,           0.,   1.20000005
    723,   2.05882359,           0.,   1.20000005
    724,    1.7647059,           0.,   1.20000005
    725,   1.47058821,           0.,   1.20000005
    726,   1.17647064,           0.,   1.20000005
    727,  0.882352948,           0.,   1.20000005
    728,  0.588235319,           0.,   1.20000005
    729,  0.294117659,           0.,   1.20000005
    730,           0.,        -0.25,   1.20000005
    731,  0.294117659,         -0.5,   1.20000005
    732,  0.588235319,         -0.5,   1.20000005
    733,  0.882352948,         -0.5,   1.20000005
    734,   1.17647064,         -0.5,   1.20000005
    735,   1.47058821,         -0.5,   1.20000005
    736,    1.7647059,         -0.5,   1.20000005
    737,   2.05882359,         -0.5,   1.20000005
    738,   2.35294127,         -0.5,   1.20000005
    739,   2.64705873,         -0.5,   1.20000005
    740,   2.94117641,         -0.5,   1.20000005
    741,    3.2352941,         -0.5,   1.20000005
    742,   3.52941179,         -0.5,   1.20000005
    743,   3.82352948,         -0.5,   1.20000005
    744,   4.11764717,         -0.5,   1.20000005
    745,   4.41176462,         -0.5,   1.20000005
    746,   4.70588255,         -0.5,   1.20000005
    747,   5.31358528, -0.483565688,   1.20000005
    748,   5.62373495, -0.434442788,   1.20000005
    749,   5.92705107,  -0.35316956,   1.20000005
    750,   6.22021008, -0.240636379,   1.20000005
    751,          6.5, -0.0980762094,   1.20000005
    752,   6.76335573, 0.0729490146,   1.20000005
    753,   7.00739193,   0.27056551,   1.20000005
    754,   7.22943449,   0.49260819,   1.20000005
    755,   7.42705107,  0.736644268,   1.20000005
    756,   7.02254248,   1.03053689,   1.20000005
    757,     6.857862,  0.827173471,   1.20000005
    758,   6.67282629,  0.642137945,   1.20000005
    759,   6.46946335,  0.477457523,   1.20000005
    760,         6.25,    0.3349365,   1.20000005
    761,   6.01684141,  0.216136351,   1.20000005
    762,   5.77254248,   0.12235871,   1.20000005
    763,   5.51977921, 0.0546309985,   1.20000005
    764,   5.26132107, 0.0136952614,   1.20000005
    765,   7.53156996,   1.38480759,   1.20000005
    766,   7.68157005,   1.64461529,   1.20000005
    767,   7.83156967,   1.90442288,   1.20000005
    768,   7.98156977,   2.16423059,   1.20000005
    769,   8.13156986,   2.42403817,   1.20000005
    770,   8.28156948,   2.68384576,   1.20000005
    771,   8.43157005,   2.94365335,   1.20000005
    772,   8.58156967,   3.20346093,   1.20000005
    773,   8.73157024,   3.46326852,   1.20000005
    774,   4.70588255,        -0.25,   1.20000005
    775,   4.41176462,        -0.25,   1.20000005
    776,   4.11764717,        -0.25,   1.20000005
    777,   3.82352948,        -0.25,   1.20000005
    778,   3.52941179,        -0.25,   1.20000005
    779,    3.2352941,        -0.25,   1.20000005
    780,   2.94117641,        -0.25,   1.20000005
    781,   2.64705873,        -0.25,   1.20000005
    782,   2.35294127,        -0.25,   1.20000005
    783,   2.05882359,        -0.25,   1.20000005
    784,    1.7647059,        -0.25,   1.20000005
    785,   1.47058821,        -0.25,   1.20000005
    786,   1.17647064,        -0.25,   1.20000005
    787,  0.882352948,        -0.25,   1.20000005
    788,  0.588235319,        -0.25,   1.20000005
    789,  0.294117659,        -0.25,   1.20000005
    790,   5.28745317, -0.234935209,   1.20000005
    791,   5.57175732, -0.189905897,   1.20000005
    792,   5.84979677, -0.115405418,   1.20000005
    793,   6.11852598, -0.0122500081,   1.20000005
    794,        6.375,  0.118430138,   1.20000005
    795,    6.6164093,  0.275203258,   1.20000005
    796,   6.84010935,  0.456351727,   1.20000005
    797,   7.04364824,  0.659890831,   1.20000005
    798,   7.22479677,  0.883590579,   1.20000005
    799,   7.16506338,         1.25,  0.899999976
    800,   7.59807634,           1.,  0.899999976
    801,   9.09807587,   3.59807611,  0.899999976
    802,   8.66506386,   3.84807611,  0.899999976
    803,           5.,         -0.5,  0.899999976
    804,           5.,           0.,  0.899999976
    805,           0.,           0.,  0.899999976
    806,           0.,         -0.5,  0.899999976
    807,   7.38156986,        1.125,  0.899999976
    808,   7.74807644,   1.25980759,  0.899999976
    809,   7.89807606,   1.51961529,  0.899999976
    810,   8.04807663,   1.77942288,  0.899999976
    811,   8.19807625,   2.03923059,  0.899999976
    812,   8.34807587,   2.29903817,  0.899999976
    813,   8.49807644,   2.55884576,  0.899999976
    814,   8.64807606,   2.81865335,  0.899999976
    815,   8.79807663,   3.07846093,  0.899999976
    816,   8.94807625,   3.33826852,  0.899999976
    817,   8.88156986,   3.72307611,  0.899999976
    818,   8.51506329,   3.58826852,  0.899999976
    819,   8.36506367,   3.32846093,  0.899999976
    820,    8.2150631,   3.06865335,  0.899999976
    821,   8.06506348,   2.80884576,  0.899999976
    822,   7.91506338,   2.54903817,  0.899999976
    823,   7.76506329,   2.28923059,  0.899999976
    824,   7.61506367,   2.02942276,  0.899999976
    825,   7.46506357,   1.76961529,  0.899999976
    826,   7.31506348,   1.50980759,  0.899999976
    827,           5.,        -0.25,  0.899999976
    828,   4.70588255,           0.,  0.899999976
    829,   4.41176462,           0.,  0.899999976
    830,   4.11764717,           0.,  0.899999976
    831,   3.82352948,           0.,  0.899999976
    832,   3.52941179,           0.,  0.899999976
    833,    3.2352941,           0.,  0.899999976
    834,   2.94117641,           0.,  0.899999976
    835,   2.64705873,           0.,  0.899999976
    836,   2.35294127,           0.,  0.899999976
    837,   2.05882359,           0.,  0.899999976
    838,    1.7647059,           0.,  0.899999976
    839,   1.47058821,           0.,  0.899999976
    840,   1.17647064,           0.,  0.899999976
    841,  0.882352948,           0.,  0.899999976
    842,  0.588235319,           0.,  0.899999976
    843,  0.294117659,           0.,  0.899999976
    844,           0.,        -0.25,  0.899999976
    845,  0.294117659,         -0.5,  0.899999976
    846,  0.588235319,         -0.5,  0.899999976
    847,  0.882352948,         -0.5,  0.899999976
    848,   1.17647064,         -0.5,  0.899999976
    849,   1.47058821,         -0.5,  0.899999976
    850,    1.7647059,         -0.5,  0.899999976
    851,   2.05882359,         -0.5,  0.899999976
    852,   2.35294127,         -0.5,  0.899999976
    853,   2.64705873,         -0.5,  0.899999976
    854,   2.94117641,         -0.5,  0.899999976
    855,    3.2352941,         -0.5,  0.899999976
    856,   3.52941179,         -0.5,  0.899999976
    857,   3.82352948,         -0.5,  0.899999976
    858,   4.11764717,         -0.5,  0.899999976
    859,   4.41176462,         -0.5,  0.899999976
    860,   4.70588255,         -0.5,  0.899999976
    861,   5.31358528, -0.483565688,  0.899999976
    862,   5.62373495, -0.434442788,  0.899999976
    863,   5.92705107,  -0.35316956,  0.899999976
    864,   6.22021008, -0.240636379,  0.899999976
    865,          6.5, -0.0980762094,  0.899999976
    866,   6.76335573, 0.0729490146,  0.899999976
    867,   7.00739193,   0.27056551,  0.899999976
    868,   7.22943449,   0.49260819,  0.899999976
    869,   7.42705107,  0.736644268,  0.899999976
    870,   7.02254248,   1.03053689,  0.899999976
    871,     6.857862,  0.827173471,  0.899999976
    872,   6.67282629,  0.642137945,  0.899999976
    873,   6.46946335,  0.477457523,  0.899999976
    874,         6.25,    0.3349365,  0.899999976
    875,   6.01684141,  0.216136351,  0.899999976
    876,   5.77254248,   0.12235871,  0.899999976
    877,   5.51977921, 0.0546309985,  0.899999976
    878,   5.26132107, 0.0136952614,  0.899999976
    879,   7.53156996,   1.38480759,  0.899999976
    880,   7.68157005,   1.64461529,  0.899999976
    881,   7.83156967,   1.90442288,  0.899999976
    882,   7.98156977,   2.16423059,  0.899999976
    883,   8.13156986,   2.42403817,  0.899999976
    884,   8.28156948,   2.68384576,  0.899999976
    885,   8.43157005,   2.94365335,  0.899999976
    886,   8.58156967,   3.20346093,  0.899999976
    887,   8.73157024,   3.46326852,  0.899999976
    888,   4.70588255,        -0.25,  0.899999976
    889,   4.41176462,        -0.25,  0.899999976
    890,   4.11764717,        -0.25,  0.899999976
    891,   3.82352948,        -0.25,  0.899999976
    892,   3.52941179,        -0.25,  0.899999976
    893,    3.2352941,        -0.25,  0.899999976
    894,   2.94117641,        -0.25,  0.899999976
    895,   2.64705873,        -0.25,  0.899999976
    896,   2.35294127,        -0.25,  0.899999976
    897,   2.05882359,        -0.25,  0.899999976
    898,    1.7647059,        -0.25,  0.899999976
    899,   1.47058821,        -0.25,  0.899999976
    900,   1.17647064,        -0.25,  0.899999976
    901,  0.882352948,        -0.25,  0.899999976
    902,  0.588235319,        -0.25,  0.899999976
    903,  0.294117659,        -0.25,  0.899999976
    904,   5.28745317, -0.234935209,  0.899999976
    905,   5.57175732, -0.189905897,  0.899999976
    906,   5.84979677, -0.115405418,  0.899999976
    907,   6.11852598, -0.0122500081,  0.899999976
    908,        6.375,  0.118430138,  0.899999976
    909,    6.6164093,  0.275203258,  0.899999976
    910,   6.84010935,  0.456351727,  0.899999976
    911,   7.04364824,  0.659890831,  0.899999976
    912,   7.22479677,  0.883590579,  0.899999976
    913,   7.16506338,         1.25,  0.600000024
    914,   7.59807634,           1.,  0.600000024
    915,   9.09807587,   3.59807611,  0.600000024
    916,   8.66506386,   3.84807611,  0.600000024
    917,           5.,         -0.5,  0.600000024
    918,           5.,           0.,  0.600000024
    919,           0.,           0.,  0.600000024
    920,           0.,         -0.5,  0.600000024
    921,   7.38156986,        1.125,  0.600000024
    922,   7.74807644,   1.25980759,  0.600000024
    923,   7.89807606,   1.51961529,  0.600000024
    924,   8.04807663,   1.77942288,  0.600000024
    925,   8.19807625,   2.03923059,  0.600000024
    926,   8.34807587,   2.29903817,  0.600000024
    927,   8.49807644,   2.55884576,  0.600000024
    928,   8.64807606,   2.81865335,  0.600000024
    929,   8.79807663,   3.07846093,  0.600000024
    930,   8.94807625,   3.33826852,  0.600000024
    931,   8.88156986,   3.72307611,  0.600000024
    932,   8.51506329,   3.58826852,  0.600000024
    933,   8.36506367,   3.32846093,  0.600000024
    934,    8.2150631,   3.06865335,  0.600000024
    935,   8.06506348,   2.80884576,  0.600000024
    936,   7.91506338,   2.54903817,  0.600000024
    937,   7.76506329,   2.28923059,  0.600000024
    938,   7.61506367,   2.02942276,  0.600000024
    939,   7.46506357,   1.76961529,  0.600000024
    940,   7.31506348,   1.50980759,  0.600000024
    941,           5.,        -0.25,  0.600000024
    942,   4.70588255,           0.,  0.600000024
    943,   4.41176462,           0.,  0.600000024
    944,   4.11764717,           0.,  0.600000024
    945,   3.82352948,           0.,  0.600000024
    946,   3.52941179,           0.,  0.600000024
    947,    3.2352941,           0.,  0.600000024
    948,   2.94117641,           0.,  0.600000024
    949,   2.64705873,           0.,  0.600000024
    950,   2.35294127,           0.,  0.600000024
    951,   2.05882359,           0.,  0.600000024
    952,    1.7647059,           0.,  0.600000024
    953,   1.47058821,           0.,  0.600000024
    954,   1.17647064,           0.,  0.600000024
    955,  0.882352948,           0.,  0.600000024
    956,  0.588235319,           0.,  0.600000024
    957,  0.294117659,           0.,  0.600000024
    958,           0.,        -0.25,  0.600000024
    959,  0.294117659,         -0.5,  0.600000024
    960,  0.588235319,         -0.5,  0.600000024
    961,  0.882352948,         -0.5,  0.600000024
    962,   1.17647064,         -0.5,  0.600000024
    963,   1.47058821,         -0.5,  0.600000024
    964,    1.7647059,         -0.5,  0.600000024
    965,   2.05882359,         -0.5,  0.600000024
    966,   2.35294127,         -0.5,  0.600000024
    967,   2.64705873,         -0.5,  0.600000024
    968,   2.94117641,         -0.5,  0.600000024
    969,    3.2352941,         -0.5,  0.600000024
    970,   3.52941179,         -0.5,  0.600000024
    971,   3.82352948,         -0.5,  0.600000024
    972,   4.11764717,         -0.5,  0.600000024
    973,   4.41176462,         -0.5,  0.600000024
    974,   4.70588255,         -0.5,  0.600000024
    975,   5.31358528, -0.483565688,  0.600000024
    976,   5.62373495, -0.434442788,  0.600000024
    977,   5.92705107,  -0.35316956,  0.600000024
    978,   6.22021008, -0.240636379,  0.600000024
    979,          6.5, -0.0980762094,  0.600000024
    980,   6.76335573, 0.0729490146,  0.600000024
    981,   7.00739193,   0.27056551,  0.600000024
    982,   7.22943449,   0.49260819,  0.600000024
    983,   7.42705107,  0.736644268,  0.600000024
    984,   7.02254248,   1.03053689,  0.600000024
    985,     6.857862,  0.827173471,  0.600000024
    986,   6.67282629,  0.642137945,  0.600000024
    987,   6.46946335,  0.477457523,  0.600000024
    988,         6.25,    0.3349365,  0.600000024
    989,   6.01684141,  0.216136351,  0.600000024
    990,   5.77254248,   0.12235871,  0.600000024
    991,   5.51977921, 0.0546309985,  0.600000024
    992,   5.26132107, 0.0136952614,  0.600000024
    993,   7.53156996,   1.38480759,  0.600000024
    994,   7.68157005,   1.64461529,  0.600000024
    995,   7.83156967,   1.90442288,  0.600000024
    996,   7.98156977,   2.16423059,  0.600000024
    997,   8.13156986,   2.42403817,  0.600000024
    998,   8.28156948,   2.68384576,  0.600000024
    999,   8.43157005,   2.94365335,  0.600000024
   1000,   8.58156967,   3.20346093,  0.600000024
   1001,   8.73157024,   3.46326852,  0.600000024
   1002,   4.70588255,        -0.25,  0.600000024
   1003,   4.41176462,        -0.25,  0.600000024
   1004,   4.11764717,        -0.25,  0.600000024
   1005,   3.82352948,        -0.25,  0.600000024
   1006,   3.52941179,        -0.25,  0.600000024
   1007,    3.2352941,        -0.25,  0.600000024
   1008,   2.94117641,        -0.25,  0.600000024
   1009,   2.64705873,        -0.25,  0.600000024
   1010,   2.35294127,        -0.25,  0.600000024
   1011,   2.05882359,        -0.25,  0.600000024
   1012,    1.7647059,        -0.25,  0.600000024
   1013,   1.47058821,        -0.25,  0.600000024
   1014,   1.17647064,        -0.25,  0.600000024
   1015,  0.882352948,        -0.25,  0.600000024
   1016,  0.588235319,        -0.25,  0.600000024
   1017,  0.294117659,        -0.25,  0.600000024
   1018,   5.28745317, -0.234935209,  0.600000024
   1019,   5.57175732, -0.189905897,  0.600000024
   1020,   5.84979677, -0.115405418,  0.600000024
   1021,   6.11852598, -0.0122500081,  0.600000024
   1022,        6.375,  0.118430138,  0.600000024
   1023,    6.6164093,  0.275203258,  0.600000024
   1024,   6.84010935,  0.456351727,  0.600000024
   1025,   7.04364824,  0.659890831,  0.600000024
   1026,   7.22479677,  0.883590579,  0.600000024
   1027,   7.16506338,         1.25,  0.300000012
   1028,   7.59807634,           1.,  0.300000012
   1029,   9.09807587,   3.59807611,  0.300000012
   1030,   8.66506386,   3.84807611,  0.300000012
   1031,           5.,         -0.5,  0.300000012
   1032,           5.,           0.,  0.300000012
   1033,           0.,           0.,  0.300000012
   1034,           0.,         -0.5,  0.300000012
   1035,   7.38156986,        1.125,  0.300000012
   1036,   7.74807644,   1.25980759,  0.300000012
   1037,   7.89807606,   1.51961529,  0.300000012
   1038,   8.04807663,   1.77942288,  0.300000012
   1039,   8.19807625,   2.03923059,  0.300000012
   1040,   8.34807587,   2.29903817,  0.300000012
   1041,   8.49807644,   2.55884576,  0.300000012
   1042,   8.64807606,   2.81865335,  0.300000012
   1043,   8.79807663,   3.07846093,  0.300000012
   1044,   8.94807625,   3.33826852,  0.300000012
   1045,   8.88156986,   3.72307611,  0.300000012
   1046,   8.51506329,   3.58826852,  0.300000012
   1047,   8.36506367,   3.32846093,  0.300000012
   1048,    8.2150631,   3.06865335,  0.300000012
   1049,   8.06506348,   2.80884576,  0.300000012
   1050,   7.91506338,   2.54903817,  0.300000012
   1051,   7.76506329,   2.28923059,  0.300000012
   1052,   7.61506367,   2.02942276,  0.300000012
   1053,   7.46506357,   1.76961529,  0.300000012
   1054,   7.31506348,   1.50980759,  0.300000012
   1055,           5.,        -0.25,  0.300000012
   1056,   4.70588255,           0.,  0.300000012
   1057,   4.41176462,           0.,  0.300000012
   1058,   4.11764717,           0.,  0.300000012
   1059,   3.82352948,           0.,  0.300000012
   1060,   3.52941179,           0.,  0.300000012
   1061,    3.2352941,           0.,  0.300000012
   1062,   2.94117641,           0.,  0.300000012
   1063,   2.64705873,           0.,  0.300000012
   1064,   2.35294127,           0.,  0.300000012
   1065,   2.05882359,           0.,  0.300000012
   1066,    1.7647059,           0.,  0.300000012
   1067,   1.47058821,           0.,  0.300000012
   1068,   1.17647064,           0.,  0.300000012
   1069,  0.882352948,           0.,  0.300000012
   1070,  0.588235319,           0.,  0.300000012
   1071,  0.294117659,           0.,  0.300000012
   1072,           0.,        -0.25,  0.300000012
   1073,  0.294117659,         -0.5,  0.300000012
   1074,  0.588235319,         -0.5,  0.300000012
   1075,  0.882352948,         -0.5,  0.300000012
   1076,   1.17647064,         -0.5,  0.300000012
   1077,   1.47058821,         -0.5,  0.300000012
   1078,    1.7647059,         -0.5,  0.300000012
   1079,   2.05882359,         -0.5,  0.300000012
   1080,   2.35294127,         -0.5,  0.300000012
   1081,   2.64705873,         -0.5,  0.300000012
   1082,   2.94117641,         -0.5,  0.300000012
   1083,    3.2352941,         -0.5,  0.300000012
   1084,   3.52941179,         -0.5,  0.300000012
   1085,   3.82352948,         -0.5,  0.300000012
   1086,   4.11764717,         -0.5,  0.300000012
   1087,   4.41176462,         -0.5,  0.300000012
   1088,   4.70588255,         -0.5,  0.300000012
   1089,   5.31358528, -0.483565688,  0.300000012
   1090,   5.62373495, -0.434442788,  0.300000012
   1091,   5.92705107,  -0.35316956,  0.300000012
   1092,   6.22021008, -0.240636379,  0.300000012
   1093,          6.5, -0.0980762094,  0.300000012
   1094,   6.76335573, 0.0729490146,  0.300000012
   1095,   7.00739193,   0.27056551,  0.300000012
   1096,   7.22943449,   0.49260819,  0.300000012
   1097,   7.42705107,  0.736644268,  0.300000012
   1098,   7.02254248,   1.03053689,  0.300000012
   1099,     6.857862,  0.827173471,  0.300000012
   1100,   6.67282629,  0.642137945,  0.300000012
   1101,   6.46946335,  0.477457523,  0.300000012
   1102,         6.25,    0.3349365,  0.300000012
   1103,   6.01684141,  0.216136351,  0.300000012
   1104,   5.77254248,   0.12235871,  0.300000012
   1105,   5.51977921, 0.0546309985,  0.300000012
   1106,   5.26132107, 0.0136952614,  0.300000012
   1107,   7.53156996,   1.38480759,  0.300000012
   1108,   7.68157005,   1.64461529,  0.300000012
   1109,   7.83156967,   1.90442288,  0.300000012
   1110,   7.98156977,   2.16423059,  0.300000012
   1111,   8.13156986,   2.42403817,  0.300000012
   1112,   8.28156948,   2.68384576,  0.300000012
   1113,   8.43157005,   2.94365335,  0.300000012
   1114,   8.58156967,   3.20346093,  0.300000012
   1115,   8.73157024,   3.46326852,  0.300000012
   1116,   4.70588255,        -0.25,  0.300000012
   1117,   4.41176462,        -0.25,  0.300000012
   1118,   4.11764717,        -0.25,  0.300000012
   1119,   3.82352948,        -0.25,  0.300000012
   1120,   3.52941179,        -0.25,  0.300000012
   1121,    3.2352941,        -0.25,  0.300000012
   1122,   2.94117641,        -0.25,  0.300000012
   1123,   2.64705873,        -0.25,  0.300000012
   1124,   2.35294127,        -0.25,  0.300000012
   1125,   2.05882359,        -0.25,  0.300000012
   1126,    1.7647059,        -0.25,  0.300000012
   1127,   1.47058821,        -0.25,  0.300000012
   1128,   1.17647064,        -0.25,  0.300000012
   1129,  0.882352948,        -0.25,  0.300000012
   1130,  0.588235319,        -0.25,  0.300000012
   1131,  0.294117659,        -0.25,  0.300000012
   1132,   5.28745317, -0.234935209,  0.300000012
   1133,   5.57175732, -0.189905897,  0.300000012
   1134,   5.84979677, -0.115405418,  0.300000012
   1135,   6.11852598, -0.0122500081,  0.300000012
   1136,        6.375,  0.118430138,  0.300000012
   1137,    6.6164093,  0.275203258,  0.300000012
   1138,   6.84010935,  0.456351727,  0.300000012
   1139,   7.04364824,  0.659890831,  0.300000012
   1140,   7.22479677,  0.883590579,  0.300000012
   1141,   7.16506338,         1.25,           0.
   1142,   7.59807634,           1.,           0.
   1143,   9.09807587,   3.59807611,           0.
   1144,   8.66506386,   3.84807611,           0.
   1145,           5.,         -0.5,           0.
   1146,           5.,           0.,           0.
   1147,           0.,           0.,           0.
   1148,           0.,         -0.5,           0.
   1149,   7.38156986,        1.125,           0.
   1150,   7.74807644,   1.25980759,           0.
   1151,   7.89807606,   1.51961529,           0.
   1152,   8.04807663,   1.77942288,           0.
   1153,   8.19807625,   2.03923059,           0.
   1154,   8.34807587,   2.29903817,           0.
   1155,   8.49807644,   2.55884576,           0.
   1156,   8.64807606,   2.81865335,           0.
   1157,   8.79807663,   3.07846093,           0.
   1158,   8.94807625,   3.33826852,           0.
   1159,   8.88156986,   3.72307611,           0.
   1160,   8.51506329,   3.58826852,           0.
   1161,   8.36506367,   3.32846093,           0.
   1162,    8.2150631,   3.06865335,           0.
   1163,   8.06506348,   2.80884576,           0.
   1164,   7.91506338,   2.54903817,           0.
   1165,   7.76506329,   2.28923059,           0.
   1166,   7.61506367,   2.02942276,           0.
   1167,   7.46506357,   1.76961529,           0.
   1168,   7.31506348,   1.50980759,           0.
   1169,           5.,        -0.25,           0.
   1170,   4.70588255,           0.,           0.
   1171,   4.41176462,           0.,           0.
   1172,   4.11764717,           0.,           0.
   1173,   3.82352948,           0.,           0.
   1174,   3.52941179,           0.,           0.
   1175,    3.2352941,           0.,           0.
   1176,   2.94117641,           0.,           0.
   1177,   2.64705873,           0.,           0.
   1178,   2.35294127,           0.,           0.
   1179,   2.05882359,           0.,           0.
   1180,    1.7647059,           0.,           0.
   1181,   1.47058821,           0.,           0.
   1182,   1.17647064,           0.,           0.
   1183,  0.882352948,           0.,           0.
   1184,  0.588235319,           0.,           0.
   1185,  0.294117659,           0.,           0.
   1186,           0.,        -0.25,           0.
   1187,  0.294117659,         -0.5,           0.
   1188,  0.588235319,         -0.5,           0.
   1189,  0.882352948,         -0.5,           0.
   1190,   1.17647064,         -0.5,           0.
   1191,   1.47058821,         -0.5,           0.
   1192,    1.7647059,         -0.5,           0.
   1193,   2.05882359,         -0.5,           0.
   1194,   2.35294127,         -0.5,           0.
   1195,   2.64705873,         -0.5,           0.
   1196,   2.94117641,         -0.5,           0.
   1197,    3.2352941,         -0.5,           0.
   1198,   3.52941179,         -0.5,           0.
   1199,   3.82352948,         -0.5,           0.
   1200,   4.11764717,         -0.5,           0.
   1201,   4.41176462,         -0.5,           0.
   1202,   4.70588255,         -0.5,           0.
   1203,   5.31358528, -0.483565688,           0.
   1204,   5.62373495, -0.434442788,           0.
   1205,   5.92705107,  -0.35316956,           0.
   1206,   6.22021008, -0.240636379,           0.
   1207,          6.5, -0.0980762094,           0.
   1208,   6.76335573, 0.0729490146,           0.
   1209,   7.00739193,   0.27056551,           0.
   1210,   7.22943449,   0.49260819,           0.
   1211,   7.42705107,  0.736644268,           0.
   1212,   7.02254248,   1.03053689,           0.
   1213,     6.857862,  0.827173471,           0.
   1214,   6.67282629,  0.642137945,           0.
   1215,   6.46946335,  0.477457523,           0.
   1216,         6.25,    0.3349365,           0.
   1217,   6.01684141,  0.216136351,           0.
   1218,   5.77254248,   0.12235871,           0.
   1219,   5.51977921, 0.0546309985,           0.
   1220,   5.26132107, 0.0136952614,           0.
   1221,   7.53156996,   1.38480759,           0.
   1222,   7.68157005,   1.64461529,           0.
   1223,   7.83156967,   1.90442288,           0.
   1224,   7.98156977,   2.16423059,           0.
   1225,   8.13156986,   2.42403817,           0.
   1226,   8.28156948,   2.68384576,           0.
   1227,   8.43157005,   2.94365335,           0.
   1228,   8.58156967,   3.20346093,           0.
   1229,   8.73157024,   3.46326852,           0.
   1230,   4.70588255,        -0.25,           0.
   1231,   4.41176462,        -0.25,           0.
   1232,   4.11764717,        -0.25,           0.
   1233,   3.82352948,        -0.25,           0.
   1234,   3.52941179,        -0.25,           0.
   1235,    3.2352941,        -0.25,           0.
   1236,   2.94117641,        -0.25,           0.
   1237,   2.64705873,        -0.25,           0.
   1238,   2.35294127,        -0.25,           0.
   1239,   2.05882359,        -0.25,           0.
   1240,    1.7647059,        -0.25,           0.
   1241,   1.47058821,        -0.25,           0.
   1242,   1.17647064,        -0.25,           0.
   1243,  0.882352948,        -0.25,           0.
   1244,  0.588235319,        -0.25,           0.
   1245,  0.294117659,        -0.25,           0.
   1246,   5.28745317, -0.234935209,           0.
   1247,   5.57175732, -0.189905897,           0.
   1248,   5.84979677, -0.115405418,           0.
   1249,   6.11852598, -0.0122500081,           0.
   1250,        6.375,  0.118430138,           0.
   1251,    6.6164093,  0.275203258,           0.
   1252,   6.84010935,  0.456351727,           0.
   1253,   7.04364824,  0.659890831,           0.
   1254,   7.22479677,  0.883590579,           0.
*Element, type=C3D8
  1,   28,   81,    9,    1,  142,  195,  123,  115
  2,   81,   10,    2,    9,  195,  124,  116,  123
  3,   27,   82,   81,   28,  141,  196,  195,  142
  4,   82,   11,   10,   81,  196,  125,  124,  195
  5,   26,   83,   82,   27,  140,  197,  196,  141
  6,   83,   12,   11,   82,  197,  126,  125,  196
  7,   25,   84,   83,   26,  139,  198,  197,  140
  8,   84,   13,   12,   83,  198,  127,  126,  197
  9,   24,   85,   84,   25,  138,  199,  198,  139
 10,   85,   14,   13,   84,  199,  128,  127,  198
 11,   23,   86,   85,   24,  137,  200,  199,  138
 12,   86,   15,   14,   85,  200,  129,  128,  199
 13,   22,   87,   86,   23,  136,  201,  200,  137
 14,   87,   16,   15,   86,  201,  130,  129,  200
 15,   21,   88,   87,   22,  135,  202,  201,  136
 16,   88,   17,   16,   87,  202,  131,  130,  201
 17,   20,   89,   88,   21,  134,  203,  202,  135
 18,   89,   18,   17,   88,  203,  132,  131,  202
 19,    4,   19,   89,   20,  118,  133,  203,  134
 20,   19,    3,   18,   89,  133,  117,  132,  203
 21,   62,   90,   29,    5,  176,  204,  143,  119
 22,   90,   30,    6,   29,  204,  144,  120,  143
 23,   61,   91,   90,   62,  175,  205,  204,  176
 24,   91,   31,   30,   90,  205,  145,  144,  204
 25,   60,   92,   91,   61,  174,  206,  205,  175
 26,   92,   32,   31,   91,  206,  146,  145,  205
 27,   59,   93,   92,   60,  173,  207,  206,  174
 28,   93,   33,   32,   92,  207,  147,  146,  206
 29,   58,   94,   93,   59,  172,  208,  207,  173
 30,   94,   34,   33,   93,  208,  148,  147,  207
 31,   57,   95,   94,   58,  171,  209,  208,  172
 32,   95,   35,   34,   94,  209,  149,  148,  208
 33,   56,   96,   95,   57,  170,  210,  209,  171
 34,   96,   36,   35,   95,  210,  150,  149,  209
 35,   55,   97,   96,   56,  169,  211,  210,  170
 36,   97,   37,   36,   96,  211,  151,  150,  210
 37,   54,   98,   97,   55,  168,  212,  211,  169
 38,   98,   38,   37,   97,  212,  152,  151,  211
 39,   53,   99,   98,   54,  167,  213,  212,  168
 40,   99,   39,   38,   98,  213,  153,  152,  212
 41,   52,  100,   99,   53,  166,  214,  213,  167
 42,  100,   40,   39,   99,  214,  154,  153,  213
 43,   51,  101,  100,   52,  165,  215,  214,  166
 44,  101,   41,   40,  100,  215,  155,  154,  214
 45,   50,  102,  101,   51,  164,  216,  215,  165
 46,  102,   42,   41,  101,  216,  156,  155,  215
 47,   49,  103,  102,   50,  163,  217,  216,  164
 48,  103,   43,   42,  102,  217,  157,  156,  216
 49,   48,  104,  103,   49,  162,  218,  217,  163
 50,  104,   44,   43,  103,  218,  158,  157,  217
 51,   47,  105,  104,   48,  161,  219,  218,  162
 52,  105,   45,   44,  104,  219,  159,  158,  218
 53,    8,   46,  105,   47,  122,  160,  219,  161
 54,   46,    7,   45,  105,  160,  121,  159,  219
 55,   80,  106,   29,    6,  194,  220,  143,  120
 56,  106,   63,    5,   29,  220,  177,  119,  143
 57,   79,  107,  106,   80,  193,  221,  220,  194
 58,  107,   64,   63,  106,  221,  178,  177,  220
 59,   78,  108,  107,   79,  192,  222,  221,  193
 60,  108,   65,   64,  107,  222,  179,  178,  221
 61,   77,  109,  108,   78,  191,  223,  222,  192
 62,  109,   66,   65,  108,  223,  180,  179,  222
 63,   76,  110,  109,   77,  190,  224,  223,  191
 64,  110,   67,   66,  109,  224,  181,  180,  223
 65,   75,  111,  110,   76,  189,  225,  224,  190
 66,  111,   68,   67,  110,  225,  182,  181,  224
 67,   74,  112,  111,   75,  188,  226,  225,  189
 68,  112,   69,   68,  111,  226,  183,  182,  225
 69,   73,  113,  112,   74,  187,  227,  226,  188
 70,  113,   70,   69,  112,  227,  184,  183,  226
 71,   72,  114,  113,   73,  186,  228,  227,  187
 72,  114,   71,   70,  113,  228,  185,  184,  227
 73,    1,    9,  114,   72,  115,  123,  228,  186
 74,    9,    2,   71,  114,  123,  116,  185,  228
 75,  142,  195,  123,  115,  256,  309,  237,  229
 76,  195,  124,  116,  123,  309,  238,  230,  237
 77,  141,  196,  195,  142,  255,  310,  309,  256
 78,  196,  125,  124,  195,  310,  239,  238,  309
 79,  140,  197,  196,  141,  254,  311,  310,  255
 80,  197,  126,  125,  196,  311,  240,  239,  310
 81,  139,  198,  197,  140,  253,  312,  311,  254
 82,  198,  127,  126,  197,  312,  241,  240,  311
 83,  138,  199,  198,  139,  252,  313,  312,  253
 84,  199,  128,  127,  198,  313,  242,  241,  312
 85,  137,  200,  199,  138,  251,  314,  313,  252
 86,  200,  129,  128,  199,  314,  243,  242,  313
 87,  136,  201,  200,  137,  250,  315,  314,  251
 88,  201,  130,  129,  200,  315,  244,  243,  314
 89,  135,  202,  201,  136,  249,  316,  315,  250
 90,  202,  131,  130,  201,  316,  245,  244,  315
 91,  134,  203,  202,  135,  248,  317,  316,  249
 92,  203,  132,  131,  202,  317,  246,  245,  316
 93,  118,  133,  203,  134,  232,  247,  317,  248
 94,  133,  117,  132,  203,  247,  231,  246,  317
 95,  176,  204,  143,  119,  290,  318,  257,  233
 96,  204,  144,  120,  143,  318,  258,  234,  257
 97,  175,  205,  204,  176,  289,  319,  318,  290
 98,  205,  145,  144,  204,  319,  259,  258,  318
 99,  174,  206,  205,  175,  288,  320,  319,  289
100,  206,  146,  145,  205,  320,  260,  259,  319
101,  173,  207,  206,  174,  287,  321,  320,  288
102,  207,  147,  146,  206,  321,  261,  260,  320
103,  172,  208,  207,  173,  286,  322,  321,  287
104,  208,  148,  147,  207,  322,  262,  261,  321
105,  171,  209,  208,  172,  285,  323,  322,  286
106,  209,  149,  148,  208,  323,  263,  262,  322
107,  170,  210,  209,  171,  284,  324,  323,  285
108,  210,  150,  149,  209,  324,  264,  263,  323
109,  169,  211,  210,  170,  283,  325,  324,  284
110,  211,  151,  150,  210,  325,  265,  264,  324
111,  168,  212,  211,  169,  282,  326,  325,  283
112,  212,  152,  151,  211,  326,  266,  265,  325
113,  167,  213,  212,  168,  281,  327,  326,  282
114,  213,  153,  152,  212,  327,  267,  266,  326
115,  166,  214,  213,  167,  280,  328,  327,  281
116,  214,  154,  153,  213,  328,  268,  267,  327
117,  165,  215,  214,  166,  279,  329,  328,  280
118,  215,  155,  154,  214,  329,  269,  268,  328
119,  164,  216,  215,  165,  278,  330,  329,  279
120,  216,  156,  155,  215,  330,  270,  269,  329
121,  163,  217,  216,  164,  277,  331,  330,  278
122,  217,  157,  156,  216,  331,  271,  270,  330
123,  162,  218,  217,  163,  276,  332,  331,  277
124,  218,  158,  157,  217,  332,  272,  271,  331
125,  161,  219,  218,  162,  275,  333,  332,  276
126,  219,  159,  158,  218,  333,  273,  272,  332
127,  122,  160,  219,  161,  236,  274,  333,  275
128,  160,  121,  159,  219,  274,  235,  273,  333
129,  194,  220,  143,  120,  308,  334,  257,  234
130,  220,  177,  119,  143,  334,  291,  233,  257
131,  193,  221,  220,  194,  307,  335,  334,  308
132,  221,  178,  177,  220,  335,  292,  291,  334
133,  192,  222,  221,  193,  306,  336,  335,  307
134,  222,  179,  178,  221,  336,  293,  292,  335
135,  191,  223,  222,  192,  305,  337,  336,  306
136,  223,  180,  179,  222,  337,  294,  293,  336
137,  190,  224,  223,  191,  304,  338,  337,  305
138,  224,  181,  180,  223,  338,  295,  294,  337
139,  189,  225,  224,  190,  303,  339,  338,  304
140,  225,  182,  181,  224,  339,  296,  295,  338
141,  188,  226,  225,  189,  302,  340,  339,  303
142,  226,  183,  182,  225,  340,  297,  296,  339
143,  187,  227,  226,  188,  301,  341,  340,  302
144,  227,  184,  183,  226,  341,  298,  297,  340
145,  186,  228,  227,  187,  300,  342,  341,  301
146,  228,  185,  184,  227,  342,  299,  298,  341
147,  115,  123,  228,  186,  229,  237,  342,  300
148,  123,  116,  185,  228,  237,  230,  299,  342
149,  256,  309,  237,  229,  370,  423,  351,  343
150,  309,  238,  230,  237,  423,  352,  344,  351
151,  255,  310,  309,  256,  369,  424,  423,  370
152,  310,  239,  238,  309,  424,  353,  352,  423
153,  254,  311,  310,  255,  368,  425,  424,  369
154,  311,  240,  239,  310,  425,  354,  353,  424
155,  253,  312,  311,  254,  367,  426,  425,  368
156,  312,  241,  240,  311,  426,  355,  354,  425
157,  252,  313,  312,  253,  366,  427,  426,  367
158,  313,  242,  241,  312,  427,  356,  355,  426
159,  251,  314,  313,  252,  365,  428,  427,  366
160,  314,  243,  242,  313,  428,  357,  356,  427
161,  250,  315,  314,  251,  364,  429,  428,  365
162,  315,  244,  243,  314,  429,  358,  357,  428
163,  249,  316,  315,  250,  363,  430,  429,  364
164,  316,  245,  244,  315,  430,  359,  358,  429
165,  248,  317,  316,  249,  362,  431,  430,  363
166,  317,  246,  245,  316,  431,  360,  359,  430
167,  232,  247,  317,  248,  346,  361,  431,  362
168,  247,  231,  246,  317,  361,  345,  360,  431
169,  290,  318,  257,  233,  404,  432,  371,  347
170,  318,  258,  234,  257,  432,  372,  348,  371
171,  289,  319,  318,  290,  403,  433,  432,  404
172,  319,  259,  258,  318,  433,  373,  372,  432
173,  288,  320,  319,  289,  402,  434,  433,  403
174,  320,  260,  259,  319,  434,  374,  373,  433
175,  287,  321,  320,  288,  401,  435,  434,  402
176,  321,  261,  260,  320,  435,  375,  374,  434
177,  286,  322,  321,  287,  400,  436,  435,  401
178,  322,  262,  261,  321,  436,  376,  375,  435
179,  285,  323,  322,  286,  399,  437,  436,  400
180,  323,  263,  262,  322,  437,  377,  376,  436
181,  284,  324,  323,  285,  398,  438,  437,  399
182,  324,  264,  263,  323,  438,  378,  377,  437
183,  283,  325,  324,  284,  397,  439,  438,  398
184,  325,  265,  264,  324,  439,  379,  378,  438
185,  282,  326,  325,  283,  396,  440,  439,  397
186,  326,  266,  265,  325,  440,  380,  379,  439
187,  281,  327,  326,  282,  395,  441,  440,  396
188,  327,  267,  266,  326,  441,  381,  380,  440
189,  280,  328,  327,  281,  394,  442,  441,  395
190,  328,  268,  267,  327,  442,  382,  381,  441
191,  279,  329,  328,  280,  393,  443,  442,  394
192,  329,  269,  268,  328,  443,  383,  382,  442
193,  278,  330,  329,  279,  392,  444,  443,  393
194,  330,  270,  269,  329,  444,  384,  383,  443
195,  277,  331,  330,  278,  391,  445,  444,  392
196,  331,  271,  270,  330,  445,  385,  384,  444
197,  276,  332,  331,  277,  390,  446,  445,  391
198,  332,  272,  271,  331,  446,  386,  385,  445
199,  275,  333,  332,  276,  389,  447,  446,  390
200,  333,  273,  272,  332,  447,  387,  386,  446
201,  236,  274,  333,  275,  350,  388,  447,  389
202,  274,  235,  273,  333,  388,  349,  387,  447
203,  308,  334,  257,  234,  422,  448,  371,  348
204,  334,  291,  233,  257,  448,  405,  347,  371
205,  307,  335,  334,  308,  421,  449,  448,  422
206,  335,  292,  291,  334,  449,  406,  405,  448
207,  306,  336,  335,  307,  420,  450,  449,  421
208,  336,  293,  292,  335,  450,  407,  406,  449
209,  305,  337,  336,  306,  419,  451,  450,  420
210,  337,  294,  293,  336,  451,  408,  407,  450
211,  304,  338,  337,  305,  418,  452,  451,  419
212,  338,  295,  294,  337,  452,  409,  408,  451
213,  303,  339,  338,  304,  417,  453,  452,  418
214,  339,  296,  295,  338,  453,  410,  409,  452
215,  302,  340,  339,  303,  416,  454,  453,  417
216,  340,  297,  296,  339,  454,  411,  410,  453
217,  301,  341,  340,  302,  415,  455,  454,  416
218,  341,  298,  297,  340,  455,  412,  411,  454
219,  300,  342,  341,  301,  414,  456,  455,  415
220,  342,  299,  298,  341,  456,  413,  412,  455
221,  229,  237,  342,  300,  343,  351,  456,  414
222,  237,  230,  299,  342,  351,  344,  413,  456
223,  370,  423,  351,  343,  484,  537,  465,  457
224,  423,  352,  344,  351,  537,  466,  458,  465
225,  369,  424,  423,  370,  483,  538,  537,  484
226,  424,  353,  352,  423,  538,  467,  466,  537
227,  368,  425,  424,  369,  482,  539,  538,  483
228,  425,  354,  353,  424,  539,  468,  467,  538
229,  367,  426,  425,  368,  481,  540,  539,  482
230,  426,  355,  354,  425,  540,  469,  468,  539
231,  366,  427,  426,  367,  480,  541,  540,  481
232,  427,  356,  355,  426,  541,  470,  469,  540
233,  365,  428,  427,  366,  479,  542,  541,  480
234,  428,  357,  356,  427,  542,  471,  470,  541
235,  364,  429,  428,  365,  478,  543,  542,  479
236,  429,  358,  357,  428,  543,  472,  471,  542
237,  363,  430,  429,  364,  477,  544,  543,  478
238,  430,  359,  358,  429,  544,  473,  472,  543
239,  362,  431,  430,  363,  476,  545,  544,  477
240,  431,  360,  359,  430,  545,  474,  473,  544
241,  346,  361,  431,  362,  460,  475,  545,  476
242,  361,  345,  360,  431,  475,  459,  474,  545
243,  404,  432,  371,  347,  518,  546,  485,  461
244,  432,  372,  348,  371,  546,  486,  462,  485
245,  403,  433,  432,  404,  517,  547,  546,  518
246,  433,  373,  372,  432,  547,  487,  486,  546
247,  402,  434,  433,  403,  516,  548,  547,  517
248,  434,  374,  373,  433,  548,  488,  487,  547
249,  401,  435,  434,  402,  515,  549,  548,  516
250,  435,  375,  374,  434,  549,  489,  488,  548
251,  400,  436,  435,  401,  514,  550,  549,  515
252,  436,  376,  375,  435,  550,  490,  489,  549
253,  399,  437,  436,  400,  513,  551,  550,  514
254,  437,  377,  376,  436,  551,  491,  490,  550
255,  398,  438,  437,  399,  512,  552,  551,  513
256,  438,  378,  377,  437,  552,  492,  491,  551
257,  397,  439,  438,  398,  511,  553,  552,  512
258,  439,  379,  378,  438,  553,  493,  492,  552
259,  396,  440,  439,  397,  510,  554,  553,  511
260,  440,  380,  379,  439,  554,  494,  493,  553
261,  395,  441,  440,  396,  509,  555,  554,  510
262,  441,  381,  380,  440,  555,  495,  494,  554
263,  394,  442,  441,  395,  508,  556,  555,  509
264,  442,  382,  381,  441,  556,  496,  495,  555
265,  393,  443,  442,  394,  507,  557,  556,  508
266,  443,  383,  382,  442,  557,  497,  496,  556
267,  392,  444,  443,  393,  506,  558,  557,  507
268,  444,  384,  383,  443,  558,  498,  497,  557
269,  391,  445,  444,  392,  505,  559,  558,  506
270,  445,  385,  384,  444,  559,  499,  498,  558
271,  390,  446,  445,  391,  504,  560,  559,  505
272,  446,  386,  385,  445,  560,  500,  499,  559
273,  389,  447,  446,  390,  503,  561,  560,  504
274,  447,  387,  386,  446,  561,  501,  500,  560
275,  350,  388,  447,  389,  464,  502,  561,  503
276,  388,  349,  387,  447,  502,  463,  501,  561
277,  422,  448,  371,  348,  536,  562,  485,  462
278,  448,  405,  347,  371,  562,  519,  461,  485
279,  421,  449,  448,  422,  535,  563,  562,  536
280,  449,  406,  405,  448,  563,  520,  519,  562
281,  420,  450,  449,  421,  534,  564,  563,  535
282,  450,  407,  406,  449,  564,  521,  520,  563
283,  419,  451,  450,  420,  533,  565,  564,  534
284,  451,  408,  407,  450,  565,  522,  521,  564
285,  418,  452,  451,  419,  532,  566,  565,  533
286,  452,  409,  408,  451,  566,  523,  522,  565
287,  417,  453,  452,  418,  531,  567,  566,  532
288,  453,  410,  409,  452,  567,  524,  523,  566
289,  416,  454,  453,  417,  530,  568,  567,  531
290,  454,  411,  410,  453,  568,  525,  524,  567
291,  415,  455,  454,  416,  529,  569,  568,  530
292,  455,  412,  411,  454,  569,  526,  525,  568
293,  414,  456,  455,  415,  528,  570,  569,  529
294,  456,  413,  412,  455,  570,  527,  526,  569
295,  343,  351,  456,  414,  457,  465,  570,  528
296,  351,  344,  413,  456,  465,  458,  527,  570
297,  484,  537,  465,  457,  598,  651,  579,  571
298,  537,  466,  458,  465,  651,  580,  572,  579
299,  483,  538,  537,  484,  597,  652,  651,  598
300,  538,  467,  466,  537,  652,  581,  580,  651
301,  482,  539,  538,  483,  596,  653,  652,  597
302,  539,  468,  467,  538,  653,  582,  581,  652
303,  481,  540,  539,  482,  595,  654,  653,  596
304,  540,  469,  468,  539,  654,  583,  582,  653
305,  480,  541,  540,  481,  594,  655,  654,  595
306,  541,  470,  469,  540,  655,  584,  583,  654
307,  479,  542,  541,  480,  593,  656,  655,  594
308,  542,  471,  470,  541,  656,  585,  584,  655
309,  478,  543,  542,  479,  592,  657,  656,  593
310,  543,  472,  471,  542,  657,  586,  585,  656
311,  477,  544,  543,  478,  591,  658,  657,  592
312,  544,  473,  472,  543,  658,  587,  586,  657
313,  476,  545,  544,  477,  590,  659,  658,  591
314,  545,  474,  473,  544,  659,  588,  587,  658
315,  460,  475,  545,  476,  574,  589,  659,  590
316,  475,  459,  474,  545,  589,  573,  588,  659
317,  518,  546,  485,  461,  632,  660,  599,  575
318,  546,  486,  462,  485,  660,  600,  576,  599
319,  517,  547,  546,  518,  631,  661,  660,  632
320,  547,  487,  486,  546,  661,  601,  600,  660
321,  516,  548,  547,  517,  630,  662,  661,  631
322,  548,  488,  487,  547,  662,  602,  601,  661
323,  515,  549,  548,  516,  629,  663,  662,  630
324,  549,  489,  488,  548,  663,  603,  602,  662
325,  514,  550,  549,  515,  628,  664,  663,  629
326,  550,  490,  489,  549,  664,  604,  603,  663
327,  513,  551,  550,  514,  627,  665,  664,  628
328,  551,  491,  490,  550,  665,  605,  604,  664
329,  512,  552,  551,  513,  626,  666,  665,  627
330,  552,  492,  491,  551,  666,  606,  605,  665
331,  511,  553,  552,  512,  625,  667,  666,  626
332,  553,  493,  492,  552,  667,  607,  606,  666
333,  510,  554,  553,  511,  624,  668,  667,  625
334,  554,  494,  493,  553,  668,  608,  607,  667
335,  509,  555,  554,  510,  623,  669,  668,  624
336,  555,  495,  494,  554,  669,  609,  608,  668
337,  508,  556,  555,  509,  622,  670,  669,  623
338,  556,  496,  495,  555,  670,  610,  609,  669
339,  507,  557,  556,  508,  621,  671,  670,  622
340,  557,  497,  496,  556,  671,  611,  610,  670
341,  506,  558,  557,  507,  620,  672,  671,  621
342,  558,  498,  497,  557,  672,  612,  611,  671
343,  505,  559,  558,  506,  619,  673,  672,  620
344,  559,  499,  498,  558,  673,  613,  612,  672
345,  504,  560,  559,  505,  618,  674,  673,  619
346,  560,  500,  499,  559,  674,  614,  613,  673
347,  503,  561,  560,  504,  617,  675,  674,  618
348,  561,  501,  500,  560,  675,  615,  614,  674
349,  464,  502,  561,  503,  578,  616,  675,  617
350,  502,  463,  501,  561,  616,  577,  615,  675
351,  536,  562,  485,  462,  650,  676,  599,  576
352,  562,  519,  461,  485,  676,  633,  575,  599
353,  535,  563,  562,  536,  649,  677,  676,  650
354,  563,  520,  519,  562,  677,  634,  633,  676
355,  534,  564,  563,  535,  648,  678,  677,  649
356,  564,  521,  520,  563,  678,  635,  634,  677
357,  533,  565,  564,  534,  647,  679,  678,  648
358,  565,  522,  521,  564,  679,  636,  635,  678
359,  532,  566,  565,  533,  646,  680,  679,  647
360,  566,  523,  522,  565,  680,  637,  636,  679
361,  531,  567,  566,  532,  645,  681,  680,  646
362,  567,  524,  523,  566,  681,  638,  637,  680
363,  530,  568,  567,  531,  644,  682,  681,  645
364,  568,  525,  524,  567,  682,  639,  638,  681
365,  529,  569,  568,  530,  643,  683,  682,  644
366,  569,  526,  525,  568,  683,  640,  639,  682
367,  528,  570,  569,  529,  642,  684,  683,  643
368,  570,  527,  526,  569,  684,  641,  640,  683
369,  457,  465,  570,  528,  571,  579,  684,  642
370,  465,  458,  527,  570,  579,  572,  641,  684
371,  598,  651,  579,  571,  712,  765,  693,  685
372,  651,  580,  572,  579,  765,  694,  686,  693
373,  597,  652,  651,  598,  711,  766,  765,  712
374,  652,  581,  580,  651,  766,  695,  694,  765
375,  596,  653,  652,  597,  710,  767,  766,  711
376,  653,  582,  581,  652,  767,  696,  695,  766
377,  595,  654,  653,  596,  709,  768,  767,  710
378,  654,  583,  582,  653,  768,  697,  696,  767
379,  594,  655,  654,  595,  708,  769,  768,  709
380,  655,  584,  583,  654,  769,  698,  697,  768
381,  593,  656,  655,  594,  707,  770,  769,  708
382,  656,  585,  584,  655,  770,  699,  698,  769
383,  592,  657,  656,  593,  706,  771,  770,  707
384,  657,  586,  585,  656,  771,  700,  699,  770
385,  591,  658,  657,  592,  705,  772,  771,  706
386,  658,  587,  586,  657,  772,  701,  700,  771
387,  590,  659,  658,  591,  704,  773,  772,  705
388,  659,  588,  587,  658,  773,  702,  701,  772
389,  574,  589,  659,  590,  688,  703,  773,  704
390,  589,  573,  588,  659,  703,  687,  702,  773
391,  632,  660,  599,  575,  746,  774,  713,  689
392,  660,  600,  576,  599,  774,  714,  690,  713
393,  631,  661,  660,  632,  745,  775,  774,  746
394,  661,  601,  600,  660,  775,  715,  714,  774
395,  630,  662,  661,  631,  744,  776,  775,  745
396,  662,  602,  601,  661,  776,  716,  715,  775
397,  629,  663,  662,  630,  743,  777,  776,  744
398,  663,  603,  602,  662,  777,  717,  716,  776
399,  628,  664,  663,  629,  742,  778,  777,  743
400,  664,  604,  603,  663,  778,  718,  717,  777
401,  627,  665,  664,  628,  741,  779,  778,  742
402,  665,  605,  604,  664,  779,  719,  718,  778
403,  626,  666,  665,  627,  740,  780,  779,  741
404,  666,  606,  605,  665,  780,  720,  719,  779
405,  625,  667,  666,  626,  739,  781,  780,  740
406,  667,  607,  606,  666,  781,  721,  720,  780
407,  624,  668,  667,  625,  738,  782,  781,  739
408,  668,  608,  607,  667,  782,  722,  721,  781
409,  623,  669,  668,  624,  737,  783,  782,  738
410,  669,  609,  608,  668,  783,  723,  722,  782
411,  622,  670,  669,  623,  736,  784,  783,  737
412,  670,  610,  609,  669,  784,  724,  723,  783
413,  621,  671,  670,  622,  735,  785,  784,  736
414,  671,  611,  610,  670,  785,  725,  724,  784
415,  620,  672,  671,  621,  734,  786,  785,  735
416,  672,  612,  611,  671,  786,  726,  725,  785
417,  619,  673,  672,  620,  733,  787,  786,  734
418,  673,  613,  612,  672,  787,  727,  726,  786
419,  618,  674,  673,  619,  732,  788,  787,  733
420,  674,  614,  613,  673,  788,  728,  727,  787
421,  617,  675,  674,  618,  731,  789,  788,  732
422,  675,  615,  614,  674,  789,  729,  728,  788
423,  578,  616,  675,  617,  692,  730,  789,  731
424,  616,  577,  615,  675,  730,  691,  729,  789
425,  650,  676,  599,  576,  764,  790,  713,  690
426,  676,  633,  575,  599,  790,  747,  689,  713
427,  649,  677,  676,  650,  763,  791,  790,  764
428,  677,  634,  633,  676,  791,  748,  747,  790
429,  648,  678,  677,  649,  762,  792,  791,  763
430,  678,  635,  634,  677,  792,  749,  748,  791
431,  647,  679,  678,  648,  761,  793,  792,  762
432,  679,  636,  635,  678,  793,  750,  749,  792
433,  646,  680,  679,  647,  760,  794,  793,  761
434,  680,  637,  636,  679,  794,  751,  750,  793
435,  645,  681,  680,  646,  759,  795,  794,  760
436,  681,  638,  637,  680,  795,  752,  751,  794
437,  644,  682,  681,  645,  758,  796,  795,  759
438,  682,  639,  638,  681,  796,  753,  752,  795
439,  643,  683,  682,  644,  757,  797,  796,  758
440,  683,  640,  639,  682,  797,  754,  753,  796
441,  642,  684,  683,  643,  756,  798,  797,  757
442,  684,  641,  640,  683,  798,  755,  754,  797
443,  571,  579,  684,  642,  685,  693,  798,  756
444,  579,  572,  641,  684,  693,  686,  755,  798
445,  712,  765,  693,  685,  826,  879,  807,  799
446,  765,  694,  686,  693,  879,  808,  800,  807
447,  711,  766,  765,  712,  825,  880,  879,  826
448,  766,  695,  694,  765,  880,  809,  808,  879
449,  710,  767,  766,  711,  824,  881,  880,  825
450,  767,  696,  695,  766,  881,  810,  809,  880
451,  709,  768,  767,  710,  823,  882,  881,  824
452,  768,  697,  696,  767,  882,  811,  810,  881
453,  708,  769,  768,  709,  822,  883,  882,  823
454,  769,  698,  697,  768,  883,  812,  811,  882
455,  707,  770,  769,  708,  821,  884,  883,  822
456,  770,  699,  698,  769,  884,  813,  812,  883
457,  706,  771,  770,  707,  820,  885,  884,  821
458,  771,  700,  699,  770,  885,  814,  813,  884
459,  705,  772,  771,  706,  819,  886,  885,  820
460,  772,  701,  700,  771,  886,  815,  814,  885
461,  704,  773,  772,  705,  818,  887,  886,  819
462,  773,  702,  701,  772,  887,  816,  815,  886
463,  688,  703,  773,  704,  802,  817,  887,  818
464,  703,  687,  702,  773,  817,  801,  816,  887
465,  746,  774,  713,  689,  860,  888,  827,  803
466,  774,  714,  690,  713,  888,  828,  804,  827
467,  745,  775,  774,  746,  859,  889,  888,  860
468,  775,  715,  714,  774,  889,  829,  828,  888
469,  744,  776,  775,  745,  858,  890,  889,  859
470,  776,  716,  715,  775,  890,  830,  829,  889
471,  743,  777,  776,  744,  857,  891,  890,  858
472,  777,  717,  716,  776,  891,  831,  830,  890
473,  742,  778,  777,  743,  856,  892,  891,  857
474,  778,  718,  717,  777,  892,  832,  831,  891
475,  741,  779,  778,  742,  855,  893,  892,  856
476,  779,  719,  718,  778,  893,  833,  832,  892
477,  740,  780,  779,  741,  854,  894,  893,  855
478,  780,  720,  719,  779,  894,  834,  833,  893
479,  739,  781,  780,  740,  853,  895,  894,  854
480,  781,  721,  720,  780,  895,  835,  834,  894
481,  738,  782,  781,  739,  852,  896,  895,  853
482,  782,  722,  721,  781,  896,  836,  835,  895
483,  737,  783,  782,  738,  851,  897,  896,  852
484,  783,  723,  722,  782,  897,  837,  836,  896
485,  736,  784,  783,  737,  850,  898,  897,  851
486,  784,  724,  723,  783,  898,  838,  837,  897
487,  735,  785,  784,  736,  849,  899,  898,  850
488,  785,  725,  724,  784,  899,  839,  838,  898
489,  734,  786,  785,  735,  848,  900,  899,  849
490,  786,  726,  725,  785,  900,  840,  839,  899
491,  733,  787,  786,  734,  847,  901,  900,  848
492,  787,  727,  726,  786,  901,  841,  840,  900
493,  732,  788,  787,  733,  846,  902,  901,  847
494,  788,  728,  727,  787,  902,  842,  841,  901
495,  731,  789,  788,  732,  845,  903,  902,  846
496,  789,  729,  728,  788,  903,  843,  842,  902
497,  692,  730,  789,  731,  806,  844,  903,  845
498,  730,  691,  729,  789,  844,  805,  843,  903
499,  764,  790,  713,  690,  878,  904,  827,  804
500,  790,  747,  689,  713,  904,  861,  803,  827
501,  763,  791,  790,  764,  877,  905,  904,  878
502,  791,  748,  747,  790,  905,  862,  861,  904
503,  762,  792,  791,  763,  876,  906,  905,  877
504,  792,  749,  748,  791,  906,  863,  862,  905
505,  761,  793,  792,  762,  875,  907,  906,  876
506,  793,  750,  749,  792,  907,  864,  863,  906
507,  760,  794,  793,  761,  874,  908,  907,  875
508,  794,  751,  750,  793,  908,  865,  864,  907
509,  759,  795,  794,  760,  873,  909,  908,  874
510,  795,  752,  751,  794,  909,  866,  865,  908
511,  758,  796,  795,  759,  872,  910,  909,  873
512,  796,  753,  752,  795,  910,  867,  866,  909
513,  757,  797,  796,  758,  871,  911,  910,  872
514,  797,  754,  753,  796,  911,  868,  867,  910
515,  756,  798,  797,  757,  870,  912,  911,  871
516,  798,  755,  754,  797,  912,  869,  868,  911
517,  685,  693,  798,  756,  799,  807,  912,  870
518,  693,  686,  755,  798,  807,  800,  869,  912
519,  826,  879,  807,  799,  940,  993,  921,  913
520,  879,  808,  800,  807,  993,  922,  914,  921
521,  825,  880,  879,  826,  939,  994,  993,  940
522,  880,  809,  808,  879,  994,  923,  922,  993
523,  824,  881,  880,  825,  938,  995,  994,  939
524,  881,  810,  809,  880,  995,  924,  923,  994
525,  823,  882,  881,  824,  937,  996,  995,  938
526,  882,  811,  810,  881,  996,  925,  924,  995
527,  822,  883,  882,  823,  936,  997,  996,  937
528,  883,  812,  811,  882,  997,  926,  925,  996
529,  821,  884,  883,  822,  935,  998,  997,  936
530,  884,  813,  812,  883,  998,  927,  926,  997
531,  820,  885,  884,  821,  934,  999,  998,  935
532,  885,  814,  813,  884,  999,  928,  927,  998
533,  819,  886,  885,  820,  933, 1000,  999,  934
534,  886,  815,  814,  885, 1000,  929,  928,  999
535,  818,  887,  886,  819,  932, 1001, 1000,  933
536,  887,  816,  815,  886, 1001,  930,  929, 1000
537,  802,  817,  887,  818,  916,  931, 1001,  932
538,  817,  801,  816,  887,  931,  915,  930, 1001
539,  860,  888,  827,  803,  974, 1002,  941,  917
540,  888,  828,  804,  827, 1002,  942,  918,  941
541,  859,  889,  888,  860,  973, 1003, 1002,  974
542,  889,  829,  828,  888, 1003,  943,  942, 1002
543,  858,  890,  889,  859,  972, 1004, 1003,  973
544,  890,  830,  829,  889, 1004,  944,  943, 1003
545,  857,  891,  890,  858,  971, 1005, 1004,  972
546,  891,  831,  830,  890, 1005,  945,  944, 1004
547,  856,  892,  891,  857,  970, 1006, 1005,  971
548,  892,  832,  831,  891, 1006,  946,  945, 1005
549,  855,  893,  892,  856,  969, 1007, 1006,  970
550,  893,  833,  832,  892, 1007,  947,  946, 1006
551,  854,  894,  893,  855,  968, 1008, 1007,  969
552,  894,  834,  833,  893, 1008,  948,  947, 1007
553,  853,  895,  894,  854,  967, 1009, 1008,  968
554,  895,  835,  834,  894, 1009,  949,  948, 1008
555,  852,  896,  895,  853,  966, 1010, 1009,  967
556,  896,  836,  835,  895, 1010,  950,  949, 1009
557,  851,  897,  896,  852,  965, 1011, 1010,  966
558,  897,  837,  836,  896, 1011,  951,  950, 1010
559,  850,  898,  897,  851,  964, 1012, 1011,  965
560,  898,  838,  837,  897, 1012,  952,  951, 1011
561,  849,  899,  898,  850,  963, 1013, 1012,  964
562,  899,  839,  838,  898, 1013,  953,  952, 1012
563,  848,  900,  899,  849,  962, 1014, 1013,  963
564,  900,  840,  839,  899, 1014,  954,  953, 1013
565,  847,  901,  900,  848,  961, 1015, 1014,  962
566,  901,  841,  840,  900, 1015,  955,  954, 1014
567,  846,  902,  901,  847,  960, 1016, 1015,  961
568,  902,  842,  841,  901, 1016,  956,  955, 1015
569,  845,  903,  902,  846,  959, 1017, 1016,  960
570,  903,  843,  842,  902, 1017,  957,  956, 1016
571,  806,  844,  903,  845,  920,  958, 1017,  959
572,  844,  805,  843,  903,  958,  919,  957, 1017
573,  878,  904,  827,  804,  992, 1018,  941,  918
574,  904,  861,  803,  827, 1018,  975,  917,  941
575,  877,  905,  904,  878,  991, 1019, 1018,  992
576,  905,  862,  861,  904, 1019,  976,  975, 1018
577,  876,  906,  905,  877,  990, 1020, 1019,  991
578,  906,  863,  862,  905, 1020,  977,  976, 1019
579,  875,  907,  906,  876,  989, 1021, 1020,  990
580,  907,  864,  863,  906, 1021,  978,  977, 1020
581,  874,  908,  907,  875,  988, 1022, 1021,  989
582,  908,  865,  864,  907, 1022,  979,  978, 1021
583,  873,  909,  908,  874,  987, 1023, 1022,  988
584,  909,  866,  865,  908, 1023,  980,  979, 1022
585,  872,  910,  909,  873,  986, 1024, 1023,  987
586,  910,  867,  866,  909, 1024,  981,  980, 1023
587,  871,  911,  910,  872,  985, 1025, 1024,  986
588,  911,  868,  867,  910, 1025,  982,  981, 1024
589,  870,  912,  911,  871,  984, 1026, 1025,  985
590,  912,  869,  868,  911, 1026,  983,  982, 1025
591,  799,  807,  912,  870,  913,  921, 1026,  984
592,  807,  800,  869,  912,  921,  914,  983, 1026
593,  940,  993,  921,  913, 1054, 1107, 1035, 1027
594,  993,  922,  914,  921, 1107, 1036, 1028, 1035
595,  939,  994,  993,  940, 1053, 1108, 1107, 1054
596,  994,  923,  922,  993, 1108, 1037, 1036, 1107
597,  938,  995,  994,  939, 1052, 1109, 1108, 1053
598,  995,  924,  923,  994, 1109, 1038, 1037, 1108
599,  937,  996,  995,  938, 1051, 1110, 1109, 1052
600,  996,  925,  924,  995, 1110, 1039, 1038, 1109
601,  936,  997,  996,  937, 1050, 1111, 1110, 1051
602,  997,  926,  925,  996, 1111, 1040, 1039, 1110
603,  935,  998,  997,  936, 1049, 1112, 1111, 1050
604,  998,  927,  926,  997, 1112, 1041, 1040, 1111
605,  934,  999,  998,  935, 1048, 1113, 1112, 1049
606,  999,  928,  927,  998, 1113, 1042, 1041, 1112
607,  933, 1000,  999,  934, 1047, 1114, 1113, 1048
608, 1000,  929,  928,  999, 1114, 1043, 1042, 1113
609,  932, 1001, 1000,  933, 1046, 1115, 1114, 1047
610, 1001,  930,  929, 1000, 1115, 1044, 1043, 1114
611,  916,  931, 1001,  932, 1030, 1045, 1115, 1046
612,  931,  915,  930, 1001, 1045, 1029, 1044, 1115
613,  974, 1002,  941,  917, 1088, 1116, 1055, 1031
614, 1002,  942,  918,  941, 1116, 1056, 1032, 1055
615,  973, 1003, 1002,  974, 1087, 1117, 1116, 1088
616, 1003,  943,  942, 1002, 1117, 1057, 1056, 1116
617,  972, 1004, 1003,  973, 1086, 1118, 1117, 1087
618, 1004,  944,  943, 1003, 1118, 1058, 1057, 1117
619,  971, 1005, 1004,  972, 1085, 1119, 1118, 1086
620, 1005,  945,  944, 1004, 1119, 1059, 1058, 1118
621,  970, 1006, 1005,  971, 1084, 1120, 1119, 1085
622, 1006,  946,  945, 1005, 1120, 1060, 1059, 1119
623,  969, 1007, 1006,  970, 1083, 1121, 1120, 1084
624, 1007,  947,  946, 1006, 1121, 1061, 1060, 1120
625,  968, 1008, 1007,  969, 1082, 1122, 1121, 1083
626, 1008,  948,  947, 1007, 1122, 1062, 1061, 1121
627,  967, 1009, 1008,  968, 1081, 1123, 1122, 1082
628, 1009,  949,  948, 1008, 1123, 1063, 1062, 1122
629,  966, 1010, 1009,  967, 1080, 1124, 1123, 1081
630, 1010,  950,  949, 1009, 1124, 1064, 1063, 1123
631,  965, 1011, 1010,  966, 1079, 1125, 1124, 1080
632, 1011,  951,  950, 1010, 1125, 1065, 1064, 1124
633,  964, 1012, 1011,  965, 1078, 1126, 1125, 1079
634, 1012,  952,  951, 1011, 1126, 1066, 1065, 1125
635,  963, 1013, 1012,  964, 1077, 1127, 1126, 1078
636, 1013,  953,  952, 1012, 1127, 1067, 1066, 1126
637,  962, 1014, 1013,  963, 1076, 1128, 1127, 1077
638, 1014,  954,  953, 1013, 1128, 1068, 1067, 1127
639,  961, 1015, 1014,  962, 1075, 1129, 1128, 1076
640, 1015,  955,  954, 1014, 1129, 1069, 1068, 1128
641,  960, 1016, 1015,  961, 1074, 1130, 1129, 1075
642, 1016,  956,  955, 1015, 1130, 1070, 1069, 1129
643,  959, 1017, 1016,  960, 1073, 1131, 1130, 1074
644, 1017,  957,  956, 1016, 1131, 1071, 1070, 1130
645,  920,  958, 1017,  959, 1034, 1072, 1131, 1073
646,  958,  919,  957, 1017, 1072, 1033, 1071, 1131
647,  992, 1018,  941,  918, 1106, 1132, 1055, 1032
648, 1018,  975,  917,  941, 1132, 1089, 1031, 1055
649,  991, 1019, 1018,  992, 1105, 1133, 1132, 1106
650, 1019,  976,  975, 1018, 1133, 1090, 1089, 1132
651,  990, 1020, 1019,  991, 1104, 1134, 1133, 1105
652, 1020,  977,  976, 1019, 1134, 1091, 1090, 1133
653,  989, 1021, 1020,  990, 1103, 1135, 1134, 1104
654, 1021,  978,  977, 1020, 1135, 1092, 1091, 1134
655,  988, 1022, 1021,  989, 1102, 1136, 1135, 1103
656, 1022,  979,  978, 1021, 1136, 1093, 1092, 1135
657,  987, 1023, 1022,  988, 1101, 1137, 1136, 1102
658, 1023,  980,  979, 1022, 1137, 1094, 1093, 1136
659,  986, 1024, 1023,  987, 1100, 1138, 1137, 1101
660, 1024,  981,  980, 1023, 1138, 1095, 1094, 1137
661,  985, 1025, 1024,  986, 1099, 1139, 1138, 1100
662, 1025,  982,  981, 1024, 1139, 1096, 1095, 1138
663,  984, 1026, 1025,  985, 1098, 1140, 1139, 1099
664, 1026,  983,  982, 1025, 1140, 1097, 1096, 1139
665,  913,  921, 1026,  984, 1027, 1035, 1140, 1098
666,  921,  914,  983, 1026, 1035, 1028, 1097, 1140
667, 1054, 1107, 1035, 1027, 1168, 1221, 1149, 1141
668, 1107, 1036, 1028, 1035, 1221, 1150, 1142, 1149
669, 1053, 1108, 1107, 1054, 1167, 1222, 1221, 1168
670, 1108, 1037, 1036, 1107, 1222, 1151, 1150, 1221
671, 1052, 1109, 1108, 1053, 1166, 1223, 1222, 1167
672, 1109, 1038, 1037, 1108, 1223, 1152, 1151, 1222
673, 1051, 1110, 1109, 1052, 1165, 1224, 1223, 1166
674, 1110, 1039, 1038, 1109, 1224, 1153, 1152, 1223
675, 1050, 1111, 1110, 1051, 1164, 1225, 1224, 1165
676, 1111, 1040, 1039, 1110, 1225, 1154, 1153, 1224
677, 1049, 1112, 1111, 1050, 1163, 1226, 1225, 1164
678, 1112, 1041, 1040, 1111, 1226, 1155, 1154, 1225
679, 1048, 1113, 1112, 1049, 1162, 1227, 1226, 1163
680, 1113, 1042, 1041, 1112, 1227, 1156, 1155, 1226
681, 1047, 1114, 1113, 1048, 1161, 1228, 1227, 1162
682, 1114, 1043, 1042, 1113, 1228, 1157, 1156, 1227
683, 1046, 1115, 1114, 1047, 1160, 1229, 1228, 1161
684, 1115, 1044, 1043, 1114, 1229, 1158, 1157, 1228
685, 1030, 1045, 1115, 1046, 1144, 1159, 1229, 1160
686, 1045, 1029, 1044, 1115, 1159, 1143, 1158, 1229
687, 1088, 1116, 1055, 1031, 1202, 1230, 1169, 1145
688, 1116, 1056, 1032, 1055, 1230, 1170, 1146, 1169
689, 1087, 1117, 1116, 1088, 1201, 1231, 1230, 1202
690, 1117, 1057, 1056, 1116, 1231, 1171, 1170, 1230
691, 1086, 1118, 1117, 1087, 1200, 1232, 1231, 1201
692, 1118, 1058, 1057, 1117, 1232, 1172, 1171, 1231
693, 1085, 1119, 1118, 1086, 1199, 1233, 1232, 1200
694, 1119, 1059, 1058, 1118, 1233, 1173, 1172, 1232
695, 1084, 1120, 1119, 1085, 1198, 1234, 1233, 1199
696, 1120, 1060, 1059, 1119, 1234, 1174, 1173, 1233
697, 1083, 1121, 1120, 1084, 1197, 1235, 1234, 1198
698, 1121, 1061, 1060, 1120, 1235, 1175, 1174, 1234
699, 1082, 1122, 1121, 1083, 1196, 1236, 1235, 1197
700, 1122, 1062, 1061, 1121, 1236, 1176, 1175, 1235
701, 1081, 1123, 1122, 1082, 1195, 1237, 1236, 1196
702, 1123, 1063, 1062, 1122, 1237, 1177, 1176, 1236
703, 1080, 1124, 1123, 1081, 1194, 1238, 1237, 1195
704, 1124, 1064, 1063, 1123, 1238, 1178, 1177, 1237
705, 1079, 1125, 1124, 1080, 1193, 1239, 1238, 1194
706, 1125, 1065, 1064, 1124, 1239, 1179, 1178, 1238
707, 1078, 1126, 1125, 1079, 1192, 1240, 1239, 1193
708, 1126, 1066, 1065, 1125, 1240, 1180, 1179, 1239
709, 1077, 1127, 1126, 1078, 1191, 1241, 1240, 1192
710, 1127, 1067, 1066, 1126, 1241, 1181, 1180, 1240
711, 1076, 1128, 1127, 1077, 1190, 1242, 1241, 1191
712, 1128, 1068, 1067, 1127, 1242, 1182, 1181, 1241
713, 1075, 1129, 1128, 1076, 1189, 1243, 1242, 1190
714, 1129, 1069, 1068, 1128, 1243, 1183, 1182, 1242
715, 1074, 1130, 1129, 1075, 1188, 1244, 1243, 1189
716, 1130, 1070, 1069, 1129, 1244, 1184, 1183, 1243
717, 1073, 1131, 1130, 1074, 1187, 1245, 1244, 1188
718, 1131, 1071, 1070, 1130, 1245, 1185, 1184, 1244
719, 1034, 1072, 1131, 1073, 1148, 1186, 1245, 1187
720, 1072, 1033, 1071, 1131, 1186, 1147, 1185, 1245
721, 1106, 1132, 1055, 1032, 1220, 1246, 1169, 1146
722, 1132, 1089, 1031, 1055, 1246, 1203, 1145, 1169
723, 1105, 1133, 1132, 1106, 1219, 1247, 1246, 1220
724, 1133, 1090, 1089, 1132, 1247, 1204, 1203, 1246
725, 1104, 1134, 1133, 1105, 1218, 1248, 1247, 1219
726, 1134, 1091, 1090, 1133, 1248, 1205, 1204, 1247
727, 1103, 1135, 1134, 1104, 1217, 1249, 1248, 1218
728, 1135, 1092, 1091, 1134, 1249, 1206, 1205, 1248
729, 1102, 1136, 1135, 1103, 1216, 1250, 1249, 1217
730, 1136, 1093, 1092, 1135, 1250, 1207, 1206, 1249
731, 1101, 1137, 1136, 1102, 1215, 1251, 1250, 1216
732, 1137, 1094, 1093, 1136, 1251, 1208, 1207, 1250
733, 1100, 1138, 1137, 1101, 1214, 1252, 1251, 1215
734, 1138, 1095, 1094, 1137, 1252, 1209, 1208, 1251
735, 1099, 1139, 1138, 1100, 1213, 1253, 1252, 1214
736, 1139, 1096, 1095, 1138, 1253, 1210, 1209, 1252
737, 1098, 1140, 1139, 1099, 1212, 1254, 1253, 1213
738, 1140, 1097, 1096, 1139, 1254, 1211, 1210, 1253
739, 1027, 1035, 1140, 1098, 1141, 1149, 1254, 1212
740, 1035, 1028, 1097, 1140, 1149, 1142, 1211, 1254
*Nset, nset=Set-1, generate
    1,  1254,     1
*Elset, elset=Set-1, generate
   1,  740,    1
** Section: Section-1
*Solid Section, elset=Set-1, material=Material-1
,
*End Instance
**  
*Nset, nset=Set-3, instance=Part-1-1, generate
   3,  357,    3
*Elset, elset=Set-3, instance=Part-1-1, generate
   2,  192,    2
*Nset, nset=Set-4, instance=Part-2-1
    3,    4,   19,  117,  118,  133,  231,  232,  247,  345,  346,  361,  459,  460,  475,  573
  574,  589,  687,  688,  703,  801,  802,  817,  915,  916,  931, 1029, 1030, 1045, 1143, 1144
 1159,
*Elset, elset=Set-4, instance=Part-2-1
  19,  20,  93,  94, 167, 168, 241, 242, 315, 316, 389, 390, 463, 464, 537, 538
 611, 612, 685, 686
*Nset, nset=surf1, instance=Part-2-1
    5,    8,   47,   48,   49,   50,   51,   52,   53,   54,   55,   56,   57,   58,   59,   60
   61,   62,  119,  122,  161,  162,  163,  164,  165,  166,  167,  168,  169,  170,  171,  172
  173,  174,  175,  176,  233,  236,  275,  276,  277,  278,  279,  280,  281,  282,  283,  284
  285,  286,  287,  288,  289,  290,  347,  350,  389,  390,  391,  392,  393,  394,  395,  396
  397,  398,  399,  400,  401,  402,  403,  404,  461,  464,  503,  504,  505,  506,  507,  508
  509,  510,  511,  512,  513,  514,  515,  516,  517,  518,  575,  578,  617,  618,  619,  620
  621,  622,  623,  624,  625,  626,  627,  628,  629,  630,  631,  632,  689,  692,  731,  732
  733,  734,  735,  736,  737,  738,  739,  740,  741,  742,  743,  744,  745,  746,  803,  806
  845,  846,  847,  848,  849,  850,  851,  852,  853,  854,  855,  856,  857,  858,  859,  860
  917,  920,  959,  960,  961,  962,  963,  964,  965,  966,  967,  968,  969,  970,  971,  972
  973,  974, 1031, 1034, 1073, 1074, 1075, 1076, 1077, 1078, 1079, 1080, 1081, 1082, 1083, 1084
 1085, 1086, 1087, 1088, 1145, 1148, 1187, 1188, 1189, 1190, 1191, 1192, 1193, 1194, 1195, 1196
 1197, 1198, 1199, 1200, 1201, 1202
*Elset, elset=surf1, instance=Part-2-1
  21,  23,  25,  27,  29,  31,  33,  35,  37,  39,  41,  43,  45,  47,  49,  51
  53,  95,  97,  99, 101, 103, 105, 107, 109, 111, 113, 115, 117, 119, 121, 123
 125, 127, 169, 171, 173, 175, 177, 179, 181, 183, 185, 187, 189, 191, 193, 195
 197, 199, 201, 243, 245, 247, 249, 251, 253, 255, 257, 259, 261, 263, 265, 267
 269, 271, 273, 275, 317, 319, 321, 323, 325, 327, 329, 331, 333, 335, 337, 339
 341, 343, 345, 347, 349, 391, 393, 395, 397, 399, 401, 403, 405, 407, 409, 411
 413, 415, 417, 419, 421, 423, 465, 467, 469, 471, 473, 475, 477, 479, 481, 483
 485, 487, 489, 491, 493, 495, 497, 539, 541, 543, 545, 547, 549, 551, 553, 555
 557, 559, 561, 563, 565, 567, 569, 571, 613, 615, 617, 619, 621, 623, 625, 627
 629, 631, 633, 635, 637, 639, 641, 643, 645, 687, 689, 691, 693, 695, 697, 699
 701, 703, 705, 707, 709, 711, 713, 715, 717, 719
*Nset, nset=surf2, instance=Part-1-1, generate
   1,  355,    3
*Elset, elset=surf2, instance=Part-1-1, generate
   1,  191,    2
*Elset, elset=_Surf-1_S6, internal, instance=Part-1-1, generate
   1,  191,    2
*Surface, type=ELEMENT, name=Surf-1
_Surf-1_S6, S6
*Elset, elset=_Surf-2_S6, internal, instance=Part-2-1
  21,  23,  25,  27,  29,  31,  33,  35,  37,  39,  41,  43,  45,  47,  49,  51
  53,  95,  97,  99, 101, 103, 105, 107, 109, 111, 113, 115, 117, 119, 121, 123
 125, 127, 169, 171, 173, 175, 177, 179, 181, 183, 185, 187, 189, 191, 193, 195
 197, 199, 201, 243, 245, 247, 249, 251, 253, 255, 257, 259, 261, 263, 265, 267
 269, 271, 273, 275, 317, 319, 321, 323, 325, 327, 329, 331, 333, 335, 337, 339
 341, 343, 345, 347, 349, 391, 393, 395, 397, 399, 401, 403, 405, 407, 409, 411
 413, 415, 417, 419, 421, 423, 465, 467, 469, 471, 473, 475, 477, 479, 481, 483
 485, 487, 489, 491, 493, 495, 497, 539, 541, 543, 545, 547, 549, 551, 553, 555
 557, 559, 561, 563, 565, 567, 569, 571, 613, 615, 617, 619, 621, 623, 625, 627
 629, 631, 633, 635, 637, 639, 641, 643, 645, 687, 689, 691, 693, 695, 697, 699
 701, 703, 705, 707, 709, 711, 713, 715, 717, 719
*Surface, type=ELEMENT, name=Surf-2
_Surf-2_S6, S6
*Nset, nset="_T-Datum csys-2", internal
Set-4, 
*Transform, nset="_T-Datum csys-2"
0.500000000000001, 0.866025403784438,           0., -0.866025403784438, 0.500000000000001,           0.
*End Assembly
** 
** MATERIALS
** 
*Material, name=Material-1
*User Material, constants=1
0.,
*Material, name=Material-2
*Elastic
 2e+06, 0.3
** 
** INTERACTION PROPERTIES
** 
*Surface Interaction, name=IntProp-1
1.,
*Cohesive Behavior, eligibility=CURRENT CONTACTS
100.,100.,100.
*Damage Initiation, criterion=MAXS
 0.3, 0.3, 0.3
*Damage Evolution, type=ENERGY
 0.1,
** 
** INTERACTIONS
** 
** Interaction: Int-1
*Contact Pair, interaction=IntProp-1, small sliding, type=SURFACE TO SURFACE
Surf-2, Surf-1
** ----------------------------------------------------------------
** 
** STEP: Step-1
** 
*Step, name=Step-1, nlgeom=YES
*Static
0.1, 1., 1e-05, 1.
** 
** BOUNDARY CONDITIONS
** 
** Name: BC-1 Type: Symmetry/Antisymmetry/Encastre
*Boundary
Set-3, ENCASTRE
** Name: BC-2 Type: Displacement/Rotation
*Boundary
Set-4, 1, 1, 1.
Set-4, 2, 2
Set-4, 3, 3
** 
** OUTPUT REQUESTS
** 
*Restart, write, frequency=0
** 
** FIELD OUTPUT: F-Output-1
** 
*Output, field, variable=PRESELECT
** 
** HISTORY OUTPUT: H-Output-1
** 
*Output, history, variable=PRESELECT
*End Step
